
    -------------------------------------------------------------
    -------------- Model input ----------------------------------
    -------------------------------------------------------------

    Model parameters:

    +-------------+----------+
    | Parameter   |    Value |
    |-------------+----------|
    | w [m]       |      0.3 |
    | h [m]       |      0.1 |
    | a [m]       |     0.05 |
    | b [m]       |    0.025 |
    | E [Pa]      | 2.08e+11 |
    | v [-]       |      0.3 |
    | t [-]       |     0.01 |
    +-------------+----------+

    Model boundary conditions:

    +----------+----------------+
    |   Marker |   Displacement |
    |----------+----------------|
    |       80 |              0 |
    +----------+----------------+

    Loads:

    +----------+-----------+------------+
    |   Marker |   qx[N/m] |   qy [N/m] |
    |----------+-----------+------------|
    |       50 |     1e+05 |          0 |
    +----------+-----------+------------+

    -------------------------------------------------------------
    -------------- Results --------------------------------------
    -------------------------------------------------------------

    Model info:

    +---------------------+------+
    | Max element size:   | 0.05 |
    | Dofs per node:      |    2 |
    | Element type:       |    2 |
    | Number of dofs:     |  406 |
    | Number of elements: |  342 |
    | Number of nodes:    |  203 |
    +---------------------+------+

    Summary of results:

    +----------------------+-----------+------+
    | Max displacement:    |  1.86e-05 | [m]  |
    | Min displacement:    | -9.96e-07 | [m]  |
    | Max reaction force:  |       317 | [N]  |
    | Min reaction force:  |  -1.4e+03 | [N]  |
    | Sum reaction forces: |    -1e+04 | [N]  |
    | Max vonMises:        |  2.77e+07 | [Pa] |
    | Min vonMises:        |  1.09e+06 | [Pa] |
    +----------------------+-----------+------+

    Results per node:

    +-----+-------+-------+-----------+------------+----------+-----------+-----------+-----------+
    |   N |   dof |   dof |   x_coord |    y_coord |      a_x |       a_y |       R_x |       R_y |
    |     |     x |     y |       [m] |        [m] |     [mm] |      [mm] |      [kN] |      [kN] |
    |-----+-------+-------+-----------+------------+----------+-----------+-----------+-----------|
    |   1 |     1 |     2 |         0 |          0 |        0 |         0 |    -0.939 |    -0.315 |
    |   2 |     3 |     4 |     0.125 |          0 |  0.00413 |  7.53e-05 | -5.68e-16 | -2.27e-16 |
    |   3 |     5 |     6 |     0.125 |      0.025 |  0.00638 |  0.000185 |  1.14e-16 | -5.68e-16 |
    |   4 |     7 |     8 |     0.175 |      0.025 |   0.0121 |  0.000218 | -3.98e-16 | -3.41e-15 |
    |   5 |     9 | 1e+01 |     0.175 |          0 |   0.0145 |  6.14e-05 | -2.16e-15 |  5.68e-16 |
    |   6 | 1e+01 | 1e+01 |       0.3 |          0 |   0.0186 |  0.000918 | -3.07e-15 |  1.14e-16 |
    |   7 | 1e+01 | 1e+01 |       0.3 |        0.1 |   0.0185 | -0.000537 |  5.23e-15 |  3.18e-15 |
    |   8 | 2e+01 | 2e+01 |     0.175 |        0.1 |   0.0143 |  -3.4e-05 | -1.65e-15 |  4.83e-16 |
    |   9 | 2e+01 | 2e+01 |     0.175 |      0.075 |   0.0121 | -0.000137 | -6.25e-16 | -3.13e-16 |
    |  10 | 2e+01 | 2e+01 |     0.125 |      0.075 |  0.00639 | -0.000177 |  3.01e-15 | -6.82e-16 |
    |  11 | 2e+01 | 2e+01 |     0.125 |        0.1 |  0.00412 | -5.62e-05 | -1.14e-16 | -2.56e-16 |
    |  12 | 2e+01 | 2e+01 |         0 |        0.1 |        0 |         0 |    -0.941 |     0.317 |
    |  13 | 2e+01 | 3e+01 |   0.01563 |          0 | 0.000854 |  0.000462 |  3.41e-16 | -3.41e-16 |
    |  14 | 3e+01 | 3e+01 |   0.03125 |          0 |  0.00157 |   0.00066 | -1.18e-15 | -1.14e-16 |
    |  15 | 3e+01 | 3e+01 |   0.04688 |          0 |  0.00226 |  0.000779 |  1.79e-15 |  5.12e-16 |
    |  16 | 3e+01 | 3e+01 |    0.0625 |          0 |  0.00292 |  0.000885 | -6.25e-16 | -3.41e-16 |
    |  17 | 3e+01 | 3e+01 |   0.07813 |          0 |  0.00352 |  0.000971 | -1.48e-15 |  9.09e-16 |
    |  18 | 4e+01 | 4e+01 |   0.09375 |          0 |  0.00396 |  0.000987 |  8.03e-16 |  2.27e-16 |
    |  19 | 4e+01 | 4e+01 |    0.1094 |          0 |  0.00415 |  0.000729 | -3.52e-15 | -2.27e-16 |
    |  20 | 4e+01 | 4e+01 |     0.125 |     0.0125 |  0.00481 |  3.19e-05 |  1.57e-15 |  1.02e-15 |
    |  21 | 4e+01 | 4e+01 |    0.1375 |      0.025 |    0.008 |  0.000461 | -6.51e-15 | -1.14e-16 |
    |  22 | 4e+01 | 4e+01 |      0.15 |      0.025 |  0.00927 |  0.000562 |  9.45e-16 |  9.09e-16 |
    |  23 | 4e+01 | 5e+01 |    0.1625 |      0.025 |   0.0106 |   0.00049 | -5.97e-16 | -7.96e-16 |
    |  24 | 5e+01 | 5e+01 |     0.175 |     0.0125 |   0.0137 | -1.27e-05 |  3.58e-15 |  2.39e-15 |
    |  25 | 5e+01 | 5e+01 |    0.1906 |          0 |   0.0144 |  0.000783 |  6.03e-15 | -9.09e-16 |
    |  26 | 5e+01 | 5e+01 |    0.2062 |          0 |   0.0146 |   0.00105 | -3.47e-15 | -1.65e-15 |
    |  27 | 5e+01 | 5e+01 |    0.2219 |          0 |   0.0151 |   0.00105 | -1.82e-15 |  1.59e-15 |
    |  28 | 6e+01 | 6e+01 |    0.2375 |          0 |   0.0157 |  0.000991 |  7.79e-15 |         0 |
    |  29 | 6e+01 | 6e+01 |    0.2531 |          0 |   0.0164 |  0.000944 | -2.67e-15 | -9.09e-16 |
    |  30 | 6e+01 | 6e+01 |    0.2687 |          0 |   0.0171 |  0.000919 |  1.31e-15 | -3.64e-15 |
    |  31 | 6e+01 | 6e+01 |    0.2844 |          0 |   0.0179 |  0.000914 |  1.82e-15 | -6.59e-15 |
    |  32 | 6e+01 | 6e+01 |       0.3 |    0.01429 |   0.0186 |  0.000713 |  -2.5e-14 | -7.96e-15 |
    |  33 | 6e+01 | 7e+01 |       0.3 |    0.02857 |   0.0186 |  0.000507 | -6.37e-15 |  7.96e-16 |
    |  34 | 7e+01 | 7e+01 |       0.3 |    0.04286 |   0.0186 |  0.000297 |  4.32e-15 |  2.13e-15 |
    |  35 | 7e+01 | 7e+01 |       0.3 |    0.05714 |   0.0186 |  8.41e-05 | -7.73e-15 |  1.99e-16 |
    |  36 | 7e+01 | 7e+01 |       0.3 |    0.07143 |   0.0185 | -0.000126 |  1.59e-15 | -5.68e-17 |
    |  37 | 7e+01 | 7e+01 |       0.3 |    0.08571 |   0.0185 | -0.000332 |  -2.5e-15 | -1.04e-15 |
    |  38 | 8e+01 | 8e+01 |    0.2844 |        0.1 |   0.0177 | -0.000574 |  1.14e-14 | -4.09e-15 |
    |  39 | 8e+01 | 8e+01 |    0.2687 |        0.1 |    0.017 | -0.000621 | -2.47e-15 | -1.08e-15 |
    |  40 | 8e+01 | 8e+01 |    0.2531 |        0.1 |   0.0162 | -0.000684 |  1.19e-14 | -6.82e-16 |
    |  41 | 8e+01 | 8e+01 |    0.2375 |        0.1 |   0.0156 | -0.000778 |  -1.9e-14 |  4.77e-15 |
    |  42 | 8e+01 | 8e+01 |    0.2219 |        0.1 |   0.0149 | -0.000858 | -5.46e-15 |  4.55e-16 |
    |  43 | 8e+01 | 9e+01 |    0.2062 |        0.1 |   0.0145 | -0.000912 |  4.44e-15 |  1.19e-15 |
    |  44 | 9e+01 | 9e+01 |    0.1906 |        0.1 |   0.0143 |  -0.00067 | -1.31e-15 | -6.14e-15 |
    |  45 | 9e+01 | 9e+01 |     0.175 |     0.0875 |   0.0136 |  4.78e-06 |  1.21e-14 |  2.84e-15 |
    |  46 | 9e+01 | 9e+01 |    0.1625 |      0.075 |   0.0105 |  -0.00044 | -8.16e-15 | -1.82e-15 |
    |  47 | 9e+01 | 9e+01 |      0.15 |      0.075 |  0.00923 | -0.000541 | -2.96e-15 | -3.41e-16 |
    |  48 | 1e+02 | 1e+02 |    0.1375 |      0.075 |  0.00794 | -0.000456 | -3.38e-15 |  1.02e-15 |
    |  49 | 1e+02 | 1e+02 |     0.125 |     0.0875 |  0.00482 | -1.32e-05 | -1.02e-15 |  1.25e-15 |
    |  50 | 1e+02 | 1e+02 |    0.1094 |        0.1 |  0.00415 | -0.000725 | -5.12e-16 | -2.05e-15 |
    |  51 | 1e+02 | 1e+02 |   0.09375 |        0.1 |  0.00396 | -0.000996 |  2.27e-16 | -4.55e-16 |
    |  52 | 1e+02 | 1e+02 |   0.07812 |        0.1 |  0.00351 |  -0.00096 |  2.83e-15 |  1.71e-16 |
    |  53 | 1e+02 | 1e+02 |    0.0625 |        0.1 |  0.00292 | -0.000882 |  1.31e-15 |  3.41e-16 |
    |  54 | 1e+02 | 1e+02 |   0.04687 |        0.1 |  0.00225 | -0.000785 | -1.14e-16 |  1.25e-15 |
    |  55 | 1e+02 | 1e+02 |   0.03125 |        0.1 |  0.00157 | -0.000659 |  1.99e-16 |  8.53e-16 |
    |  56 | 1e+02 | 1e+02 |   0.01562 |        0.1 | 0.000856 | -0.000461 | -2.56e-16 | -2.27e-16 |
    |  57 | 1e+02 | 1e+02 |         0 |    0.08571 |        0 |         0 |      -1.4 |     0.178 |
    |  58 | 1e+02 | 1e+02 |         0 |    0.07143 |        0 |         0 |     -1.34 |     0.103 |
    |  59 | 1e+02 | 1e+02 |         0 |    0.05714 |        0 |         0 |     -1.33 |    0.0383 |
    |  60 | 1e+02 | 1e+02 |         0 |    0.04286 |        0 |         0 |     -1.33 |   -0.0394 |
    |  61 | 1e+02 | 1e+02 |         0 |    0.02857 |        0 |         0 |     -1.34 |    -0.104 |
    |  62 | 1e+02 | 1e+02 |         0 |    0.01429 |        0 |         0 |      -1.4 |    -0.178 |
    |  63 | 1e+02 | 1e+02 |    0.2877 |    0.04985 |    0.018 |  0.000177 |    -2e-14 |  3.41e-15 |
    |  64 | 1e+02 | 1e+02 |   0.01237 |       0.05 | 0.000525 |  3.22e-06 |  4.55e-16 | -2.13e-16 |
    |  65 | 1e+02 | 1e+02 |   0.07031 |    0.01353 |  0.00325 |  0.000757 |  1.59e-15 |         0 |
    |  66 | 1e+02 | 1e+02 |    0.2297 |    0.08675 |   0.0152 | -0.000652 |  3.99e-14 |         0 |
    |  67 | 1e+02 | 1e+02 |   0.08583 |    0.08755 |  0.00388 | -0.000848 | -3.41e-15 |  4.55e-16 |
    |  68 | 1e+02 | 1e+02 |    0.2137 |    0.01415 |   0.0146 |  0.000904 |  3.78e-14 | -1.14e-14 |
    |  69 | 1e+02 | 1e+02 |    0.2468 |    0.01548 |   0.0161 |  0.000741 | -4.74e-14 | -1.14e-15 |
    |  70 | 1e+02 | 1e+02 |   0.05371 |    0.08661 |   0.0025 | -0.000647 | -3.18e-15 | -1.14e-16 |
    |  71 | 1e+02 | 1e+02 |    0.2591 |     0.0872 |   0.0166 | -0.000475 |   4.5e-14 | -1.14e-15 |
    |  72 | 1e+02 | 1e+02 |   0.04079 |    0.01541 |   0.0019 |  0.000529 |   2.9e-15 |  1.14e-16 |
    |  73 | 1e+02 | 1e+02 |    0.1313 |    0.06411 |  0.00749 | -9.28e-05 | -4.58e-15 | -1.59e-15 |
    |  74 | 1e+02 | 1e+02 |    0.1168 |    0.06668 |  0.00631 | -0.000292 | -2.05e-15 | -2.84e-15 |
    |  75 | 1e+02 | 2e+02 |    0.1687 |    0.06413 |    0.011 | -6.67e-05 |  2.61e-15 | -3.87e-15 |
    |  76 | 2e+02 | 2e+02 |    0.1814 |     0.0636 |   0.0119 | -0.000165 | -2.81e-14 | -5.74e-15 |
    |  77 | 2e+02 | 2e+02 |    0.1429 |    0.03593 |  0.00858 |  0.000252 | -1.26e-14 |  8.81e-16 |
    |  78 | 2e+02 | 2e+02 |    0.1024 |    0.01271 |  0.00449 |  0.000831 | -9.32e-15 |   2.5e-15 |
    |  79 | 2e+02 | 2e+02 |    0.1687 |    0.03583 |    0.011 |  0.000128 | -2.22e-14 | -1.14e-15 |
    |  80 | 2e+02 | 2e+02 |    0.1812 |    0.03583 |    0.012 |  0.000256 | -8.87e-15 |  7.96e-16 |
    |  81 | 2e+02 | 2e+02 |    0.2766 |    0.01353 |   0.0175 |  0.000719 |   1.8e-14 |  1.36e-15 |
    |  82 | 2e+02 | 2e+02 |   0.02417 |    0.08727 |  0.00112 |  -0.00041 |  1.48e-15 |  4.55e-16 |
    |  83 | 2e+02 | 2e+02 |    0.1247 |    0.05357 |  0.00717 | -3.91e-05 | -6.54e-15 |  2.84e-16 |
    |  84 | 2e+02 | 2e+02 |    0.1116 |    0.05347 |   0.0062 | -8.09e-05 |  1.31e-14 |  1.72e-15 |
    |  85 | 2e+02 | 2e+02 |     0.199 |    0.08723 |    0.014 | -0.000779 |  1.69e-14 | -4.66e-15 |
    |  86 | 2e+02 | 2e+02 |    0.1055 |     0.0646 |  0.00557 | -0.000367 | -1.15e-15 |  1.38e-15 |
    |  87 | 2e+02 | 2e+02 |   0.09829 |    0.05259 |  0.00524 | -7.39e-05 | -5.31e-15 |  3.41e-16 |
    |  88 | 2e+02 | 2e+02 |    0.1883 |    0.02507 |    0.013 |  0.000576 |  3.41e-16 |  1.36e-15 |
    |  89 | 2e+02 | 2e+02 |    0.1943 |    0.03612 |   0.0129 |  0.000411 | -1.93e-15 | -6.82e-15 |
    |  90 | 2e+02 | 2e+02 |    0.1063 |    0.04111 |  0.00575 |  0.000222 |  4.14e-15 | -3.55e-15 |
    |  91 | 2e+02 | 2e+02 |   0.09246 |    0.03773 |  0.00475 |  0.000352 |  5.12e-15 |  1.59e-15 |
    |  92 | 2e+02 | 2e+02 |   0.08425 |    0.05214 |   0.0043 |  -4.9e-05 |  1.29e-15 | -8.53e-17 |
    |  93 | 2e+02 | 2e+02 |   0.07699 |    0.03994 |  0.00382 |  0.000253 |  5.41e-15 |  1.14e-15 |
    |  94 | 2e+02 | 2e+02 |   0.06941 |    0.05235 |  0.00341 | -5.74e-05 | -1.88e-15 | -2.84e-16 |
    |  95 | 2e+02 | 2e+02 |   0.06193 |    0.04024 |  0.00297 |  0.000207 | -3.98e-15 |  6.82e-16 |
    |  96 | 2e+02 | 2e+02 |   0.05437 |    0.05248 |  0.00258 | -4.83e-05 |  2.27e-15 | -5.68e-16 |
    |  97 | 2e+02 | 2e+02 |   0.04741 |    0.04051 |  0.00221 |  0.000166 |  3.69e-15 |  3.98e-16 |
    |  98 | 2e+02 | 2e+02 |   0.03961 |    0.05343 |  0.00181 | -5.36e-05 | -2.15e-15 | -1.99e-16 |
    |  99 | 2e+02 | 2e+02 |    0.2882 |    0.07836 |    0.018 | -0.000251 | -1.06e-14 | -9.66e-15 |
    | 100 | 2e+02 | 2e+02 |   0.01134 |    0.02172 | 0.000487 |   0.00014 |  6.39e-16 |  6.39e-17 |
    | 101 | 2e+02 | 2e+02 |    0.1146 |    0.08056 |  0.00533 | -0.000568 | -3.81e-15 | -3.41e-16 |
    | 102 | 2e+02 | 2e+02 |   0.03257 |    0.03924 |  0.00146 |  0.000142 | -7.39e-16 |  4.12e-16 |
    | 103 | 2e+02 | 2e+02 |    0.1385 |    0.05317 |  0.00824 | -2.03e-05 | -1.57e-14 |  2.73e-15 |
    | 104 | 2e+02 | 2e+02 |   0.07706 |    0.06581 |  0.00378 | -0.000396 | -2.91e-15 |  1.45e-15 |
    | 105 | 2e+02 | 2e+02 |     0.175 |    0.05316 |   0.0113 |  4.33e-06 |  6.54e-15 |  7.23e-15 |
    | 106 | 2e+02 | 2e+02 |    0.1604 |    0.05468 |   0.0102 | -3.36e-05 |  7.25e-15 | -6.25e-16 |
    | 107 | 2e+02 | 2e+02 |   0.05489 |    0.02645 |  0.00257 |  0.000447 |  4.21e-15 |  4.55e-16 |
    | 108 | 2e+02 | 2e+02 |   0.04654 |    0.06498 |  0.00216 | -0.000257 |  4.55e-15 | -2.27e-16 |
    | 109 | 2e+02 | 2e+02 |   0.03371 |    0.06527 |  0.00152 | -0.000207 |  1.86e-15 | -1.71e-16 |
    | 110 | 2e+02 | 2e+02 |    0.1879 |    0.05551 |   0.0123 | -6.02e-05 |  3.38e-15 | -2.76e-15 |
    | 111 | 2e+02 | 2e+02 |    0.1945 |    0.06389 |   0.0129 |  -0.00029 |  1.77e-14 |  2.73e-15 |
    | 112 | 2e+02 | 2e+02 |    0.1995 |      0.051 |   0.0131 |  3.88e-05 | -1.51e-14 | -3.35e-15 |
    | 113 | 2e+02 | 2e+02 |     0.208 |    0.06428 |   0.0138 | -0.000319 |  5.97e-15 |  1.48e-15 |
    | 114 | 2e+02 | 2e+02 |    0.2153 |    0.05228 |   0.0141 |  1.38e-05 | -1.86e-14 |  7.39e-16 |
    | 115 | 2e+02 | 2e+02 |    0.2227 |    0.06461 |   0.0147 | -0.000272 |  1.99e-16 |  2.27e-16 |
    | 116 | 2e+02 | 2e+02 |    0.2303 |    0.05267 |    0.015 |  3.61e-05 | -1.49e-14 |  4.89e-15 |
    | 117 | 2e+02 | 2e+02 |    0.2377 |    0.06492 |   0.0155 | -0.000206 |  4.21e-15 |  9.09e-16 |
    | 118 | 2e+02 | 2e+02 |    0.2453 |    0.05286 |   0.0159 |  5.92e-05 | -1.01e-15 |  1.65e-15 |
    | 119 | 2e+02 | 2e+02 |    0.2243 |    0.03784 |   0.0148 |  0.000387 |  2.38e-14 |   2.5e-15 |
    | 120 | 2e+02 | 2e+02 |    0.2523 |    0.06527 |   0.0162 | -0.000153 |   2.1e-14 | -1.82e-15 |
    | 121 | 2e+02 | 2e+02 |    0.2601 |    0.05299 |   0.0166 |  8.51e-05 |  2.16e-14 |  1.91e-15 |
    | 122 | 2e+02 | 2e+02 |    0.2535 |    0.04043 |   0.0163 |  0.000303 | -2.13e-14 | -6.37e-15 |
    | 123 | 2e+02 | 2e+02 |    0.2672 |    0.04089 |    0.017 |  0.000299 | -3.81e-15 |  3.81e-15 |
    | 124 | 2e+02 | 2e+02 |    0.2651 |    0.06617 |   0.0169 | -0.000126 |  -1.8e-14 |  4.55e-16 |
    | 125 | 2e+02 | 2e+02 |     0.261 |    0.02636 |   0.0167 |  0.000538 |  5.48e-14 |  8.19e-15 |
    | 126 | 3e+02 | 3e+02 |   0.08241 |    0.02629 |  0.00397 |  0.000601 | -4.21e-15 |  2.27e-15 |
    | 127 | 3e+02 | 3e+02 |    0.2023 |    0.02609 |   0.0137 |  0.000694 |  7.67e-15 |  5.91e-15 |
    | 128 | 3e+02 | 3e+02 |   0.03936 |    0.07954 |  0.00181 | -0.000445 | -3.18e-15 |  1.82e-15 |
    | 129 | 3e+02 | 3e+02 |    0.2449 |    0.07858 |   0.0159 | -0.000421 |  1.88e-15 |  6.48e-15 |
    | 130 | 3e+02 | 3e+02 |     0.215 |    0.07764 |   0.0144 | -0.000604 | -1.31e-15 | -8.19e-15 |
    | 131 | 3e+02 | 3e+02 |    0.1325 |    0.04324 |  0.00773 |  3.76e-05 | -7.91e-15 | -1.46e-15 |
    | 132 | 3e+02 | 3e+02 |    0.2083 |    0.03943 |   0.0138 |  0.000361 | -1.14e-16 |  4.55e-15 |
    | 133 | 3e+02 | 3e+02 |    0.2295 |    0.01341 |   0.0153 |  0.000838 | -2.05e-14 |  3.64e-15 |
    | 134 | 3e+02 | 3e+02 |    0.2373 |    0.02663 |   0.0156 |  0.000593 | -8.84e-15 | -1.32e-14 |
    | 135 | 3e+02 | 3e+02 |   0.07017 |    0.08755 |  0.00324 | -0.000761 |  2.27e-15 |  2.27e-16 |
    | 136 | 3e+02 | 3e+02 |   0.06415 |    0.07468 |  0.00303 | -0.000518 |         0 |  4.55e-16 |
    | 137 | 3e+02 | 3e+02 |    0.1202 |     0.0424 |  0.00679 |  0.000108 | -1.37e-14 |  5.68e-17 |
    | 138 | 3e+02 | 3e+02 |    0.1439 |    0.06466 |  0.00865 | -0.000247 |  4.66e-15 |  4.89e-15 |
    | 139 | 3e+02 | 3e+02 |    0.1561 |    0.03531 |  0.00983 |  0.000274 |  1.14e-16 |  1.71e-15 |
    | 140 | 3e+02 | 3e+02 |      0.15 |    0.04665 |  0.00925 |  7.17e-05 |  2.07e-14 |  1.99e-15 |
    | 141 | 3e+02 | 3e+02 |    0.1559 |      0.065 |   0.0098 | -0.000249 | -1.14e-15 |  4.21e-15 |
    | 142 | 3e+02 | 3e+02 |   0.08681 |    0.01233 |  0.00393 |  0.000855 | -6.82e-16 | -4.55e-16 |
    | 143 | 3e+02 | 3e+02 |    0.1143 |     0.0194 |  0.00531 |  0.000593 |  -1.4e-14 |  1.59e-15 |
    | 144 | 3e+02 | 3e+02 |     0.104 |    0.02715 |  0.00519 |  0.000586 |  -2.1e-15 | -9.09e-16 |
    | 145 | 3e+02 | 3e+02 |    0.1025 |    0.08703 |  0.00451 | -0.000833 |  1.71e-15 |  5.91e-15 |
    | 146 | 3e+02 | 3e+02 |   0.09218 |    0.07439 |  0.00447 | -0.000651 |   8.2e-15 | -1.82e-15 |
    | 147 | 3e+02 | 3e+02 |   0.01198 |    0.03573 | 0.000507 |  7.33e-05 | -1.34e-15 |  2.06e-16 |
    | 148 | 3e+02 | 3e+02 |    0.2884 |    0.03563 |    0.018 |  0.000392 |  1.48e-15 | -5.23e-15 |
    | 149 | 3e+02 | 3e+02 |    0.2881 |    0.06366 |    0.018 | -3.28e-05 | -6.74e-15 |  1.14e-16 |
    | 150 | 3e+02 | 3e+02 |   0.01187 |    0.06385 | 0.000501 | -7.09e-05 | -3.69e-16 | -5.68e-17 |
    | 151 | 3e+02 | 3e+02 |     0.187 |    0.08126 |   0.0133 | -0.000573 | -1.86e-14 |  2.84e-15 |
    | 152 | 3e+02 | 3e+02 |    0.2149 |    0.02838 |   0.0144 |  0.000616 |  3.87e-15 |  1.02e-15 |
    | 153 | 3e+02 | 3e+02 |    0.2759 |    0.08684 |   0.0174 | -0.000406 |  2.37e-14 | -9.61e-15 |
    | 154 | 3e+02 | 3e+02 |   0.02345 |    0.01409 |  0.00108 |  0.000384 | -3.41e-16 | -4.55e-16 |
    | 155 | 3e+02 | 3e+02 |   0.03203 |    0.02531 |  0.00145 |  0.000319 |  7.12e-15 |  8.53e-17 |
    | 156 | 3e+02 | 3e+02 |   0.06946 |     0.0285 |  0.00332 |  0.000474 |  4.52e-15 | -1.82e-15 |
    | 157 | 3e+02 | 3e+02 |    0.2883 |    0.02173 |    0.018 |  0.000599 | -3.25e-14 |  6.82e-16 |
    | 158 | 3e+02 | 3e+02 |    0.2767 |    0.03017 |   0.0175 |  0.000469 | -2.48e-14 | -3.64e-15 |
    | 159 | 3e+02 | 3e+02 |   0.01133 |     0.0783 | 0.000487 | -0.000141 |  3.13e-16 | -5.68e-16 |
    | 160 | 3e+02 | 3e+02 |   0.05507 |    0.01108 |  0.00257 |  0.000683 | -4.43e-15 |         0 |
    | 161 | 3e+02 | 3e+02 |    0.2613 |    0.01107 |   0.0168 |  0.000768 |  8.19e-15 |  4.55e-16 |
    | 162 | 3e+02 | 3e+02 |    0.2393 |    0.04013 |   0.0156 |  0.000314 |  5.01e-14 | -9.66e-16 |
    | 163 | 3e+02 | 3e+02 |    0.2751 |    0.05541 |   0.0174 |  7.08e-05 | -3.34e-16 | -3.58e-15 |
    | 164 | 3e+02 | 3e+02 |    0.1941 |    0.01304 |   0.0139 |   0.00084 | -1.78e-14 |  4.55e-16 |
    | 165 | 3e+02 | 3e+02 |   0.02488 |    0.05492 |  0.00109 | -5.35e-05 |         0 | -5.68e-16 |
    | 166 | 3e+02 | 3e+02 |    0.1168 |    0.03126 |  0.00622 |  0.000333 |  1.01e-14 |  5.46e-15 |
    | 167 | 3e+02 | 3e+02 |    0.1992 |    0.07441 |   0.0135 | -0.000562 | -2.81e-14 |  1.93e-15 |
    | 168 | 3e+02 | 3e+02 |   0.09146 |    0.06191 |  0.00469 | -0.000326 |  5.76e-16 | -2.27e-16 |
    | 169 | 3e+02 | 3e+02 |    0.2141 |    0.09035 |   0.0146 | -0.000788 | -3.61e-14 |  4.09e-15 |
    | 170 | 3e+02 | 3e+02 |    0.2782 |    0.07143 |   0.0175 | -0.000171 |  3.06e-14 |  4.32e-15 |
    | 171 | 3e+02 | 3e+02 |    0.1498 |    0.05675 |  0.00923 | -9.06e-05 |  8.16e-15 |  4.06e-15 |
    | 172 | 3e+02 | 3e+02 |    0.1642 |    0.04483 |   0.0105 |  6.46e-05 | -1.39e-14 |  5.85e-15 |
    | 173 | 3e+02 | 3e+02 |   0.02211 |    0.07165 | 0.000973 | -0.000205 | -2.39e-15 |  1.14e-16 |
    | 174 | 3e+02 | 3e+02 |    0.1047 |    0.07562 |  0.00509 | -0.000619 | -1.37e-14 |  4.55e-16 |
    | 175 | 3e+02 | 4e+02 |    0.2482 |    0.02933 |   0.0161 |  0.000508 | -9.09e-15 |  9.55e-15 |
    | 176 | 4e+02 | 4e+02 |    0.0421 |     0.0293 |  0.00194 |  0.000325 | -4.26e-15 | -1.25e-15 |
    | 177 | 4e+02 | 4e+02 |    0.1297 |    0.03343 |  0.00731 |  0.000107 |  3.69e-16 | -1.76e-15 |
    | 178 | 4e+02 | 4e+02 |   0.07788 |      0.078 |  0.00368 |  -0.00065 | -4.97e-16 |  9.09e-16 |
    | 179 | 4e+02 | 4e+02 |    0.2672 |    0.07752 |    0.017 | -0.000298 |  3.04e-14 | -4.49e-15 |
    | 180 | 4e+02 | 4e+02 |      0.23 |     0.0745 |   0.0151 | -0.000435 | -2.14e-14 | -1.82e-15 |
    | 181 | 4e+02 | 4e+02 |    0.2453 |    0.09092 |   0.0159 | -0.000602 | -3.32e-14 | -5.46e-15 |
    | 182 | 4e+02 | 4e+02 |    0.1754 |     0.0426 |   0.0114 |  0.000119 |  2.21e-14 |  2.42e-15 |
    | 183 | 4e+02 | 4e+02 |    0.2789 |    0.04286 |   0.0176 |  0.000273 | -1.06e-14 |  2.27e-15 |
    | 184 | 4e+02 | 4e+02 |    0.2252 |    0.02428 |    0.015 |  0.000674 |  1.08e-14 | -1.14e-14 |
    | 185 | 4e+02 | 4e+02 |    0.2894 |     0.0898 |    0.018 | -0.000414 | -6.62e-14 |  2.27e-16 |
    | 186 | 4e+02 | 4e+02 |   0.01047 |    0.01015 | 0.000477 |  0.000207 |  5.68e-16 |         0 |
    | 187 | 4e+02 | 4e+02 |    0.2899 |    0.00991 |   0.0181 |  0.000772 |  9.32e-15 | -3.41e-15 |
    | 188 | 4e+02 | 4e+02 |   0.01057 |    0.08984 | 0.000483 |  -0.00021 | -3.41e-16 |  1.28e-16 |
    | 189 | 4e+02 | 4e+02 |   0.03906 |    0.09126 |  0.00185 | -0.000608 | -5.68e-16 | -1.36e-15 |
    | 190 | 4e+02 | 4e+02 |   0.06161 |     0.0626 |  0.00294 | -0.000265 | -2.84e-15 | -1.36e-15 |
    | 191 | 4e+02 | 4e+02 |    0.0936 |    0.02324 |  0.00449 |   0.00069 |  1.47e-14 | -3.87e-15 |
    | 192 | 4e+02 | 4e+02 |   0.02049 |    0.04169 | 0.000891 |  6.96e-05 |  8.67e-16 | -8.88e-17 |
    | 193 | 4e+02 | 4e+02 |    0.1152 |   0.008922 |  0.00454 |  0.000532 |  1.02e-14 | -7.67e-16 |
    | 194 | 4e+02 | 4e+02 |    0.1853 |     0.0912 |   0.0139 | -0.000499 |  3.69e-16 | -1.11e-14 |
    | 195 | 4e+02 | 4e+02 |    0.1153 |    0.09102 |  0.00455 | -0.000518 | -3.75e-15 | -1.14e-15 |
    | 196 | 4e+02 | 4e+02 |   0.02066 |    0.02857 | 0.000902 |  0.000194 |  5.68e-17 |  -5.4e-16 |
    | 197 | 4e+02 | 4e+02 |     0.141 |    0.04464 |  0.00845 |  0.000103 |  1.44e-15 | -1.21e-15 |
    | 198 | 4e+02 | 4e+02 |    0.1835 |   0.007702 |   0.0141 |  0.000512 | -4.09e-14 |  3.64e-15 |
    | 199 | 4e+02 | 4e+02 |    0.1861 |    0.04503 |   0.0122 |  0.000141 |  3.04e-14 |  7.96e-16 |
    | 200 | 4e+02 | 4e+02 |    0.2576 |    0.07523 |   0.0165 | -0.000298 |  3.68e-14 | -1.14e-15 |
    | 201 | 4e+02 | 4e+02 |    0.1834 |    0.01644 |   0.0134 |  0.000553 |  1.15e-14 | -7.73e-15 |
    | 202 | 4e+02 | 4e+02 |    0.1875 |    0.07163 |   0.0127 | -0.000398 |  6.08e-15 |  4.55e-15 |
    | 203 | 4e+02 | 4e+02 |    0.0525 |     0.0751 |  0.00245 | -0.000455 |         0 | -1.93e-15 |
    +-----+-------+-------+-----------+------------+----------+-----------+-----------+-----------+

    Results per element:

    +------+-----+-----+-----+----------+----------+----------+---------+-----------+-----------+-----------+
    |   El |   N |   N |   N |   sig_xx |   sig_yy |   tau_xy |   vMise |    eps_xx |    eps_yy |    eps_xy |
    |   Nb |   1 |   2 |   3 |    [MPa] |    [MPa] |    [MPa] |   [MPa] |       [-] |       [-] |       [-] |
    |------+-----+-----+-----+----------+----------+----------+---------+-----------+-----------+-----------|
    |    1 | 125 |  81 | 158 |    9.990 |   -0.129 |   -0.151 |  10.059 |  4.82e-05 | -1.50e-05 | -1.89e-06 |
    |    2 |  26 |  68 | 164 |    7.255 |   -0.401 |   -1.156 |   7.728 |  3.55e-05 | -1.24e-05 | -1.45e-05 |
    |    3 |  68 | 127 | 164 |    7.442 |   -0.619 |   -2.873 |   9.227 |  3.67e-05 | -1.37e-05 | -3.59e-05 |
    |    4 |  74 | 101 | 174 |   11.386 |   -0.253 |   -3.818 |  13.278 |  5.51e-05 | -1.76e-05 | -4.77e-05 |
    |    5 |  81 | 125 | 161 |    9.894 |   -0.164 |   -0.193 |   9.983 |  4.78e-05 | -1.51e-05 | -2.41e-06 |
    |    6 | 144 |  91 | 191 |   11.772 |   -1.354 |    1.690 |  12.842 |  5.85e-05 | -2.35e-05 |  2.11e-05 |
    |    7 | 107 |  65 | 156 |   10.237 |   -0.798 |    0.946 |  10.783 |  5.04e-05 | -1.86e-05 |  1.18e-05 |
    |    8 |  65 | 107 | 160 |    9.136 |   -0.428 |    0.615 |   9.417 |  4.45e-05 | -1.52e-05 |  7.68e-06 |
    |    9 |  69 | 125 | 175 |   10.039 |   -0.450 |   -0.463 |  10.303 |  4.89e-05 | -1.66e-05 | -5.79e-06 |
    |   10 |  72 | 107 | 176 |   10.147 |   -0.129 |    0.338 |  10.229 |  4.90e-05 | -1.53e-05 |  4.23e-06 |
    |   11 | 128 |  82 | 173 |    9.975 |    0.494 |   -0.401 |   9.763 |  4.72e-05 | -1.20e-05 | -5.02e-06 |
    |   12 | 125 |  69 | 161 |    9.679 |   -0.235 |   -0.345 |   9.817 |  4.69e-05 | -1.51e-05 | -4.32e-06 |
    |   13 |  74 |  10 | 101 |   14.945 |    1.335 |   -2.380 |  14.906 |  6.99e-05 | -1.51e-05 | -2.98e-05 |
    |   14 | 107 |  72 | 160 |    9.733 |   -0.252 |    0.523 |   9.903 |  4.72e-05 | -1.52e-05 |  6.54e-06 |
    |   15 | 137 | 166 | 177 |   17.152 |    1.859 |    0.965 |  16.387 |  7.98e-05 | -1.58e-05 |  1.21e-05 |
    |   16 | 166 |   3 | 177 |   16.635 |    5.149 |    4.178 |  16.431 |  7.26e-05 |  7.61e-07 |  5.22e-05 |
    |   17 |  89 | 112 | 199 |   15.477 |   -0.863 |   -0.811 |  15.988 |  7.57e-05 | -2.65e-05 | -1.01e-05 |
    |   18 | 126 |  65 | 142 |    8.533 |   -0.923 |    1.684 |   9.490 |  4.24e-05 | -1.67e-05 |  2.11e-05 |
    |   19 |  86 |  74 | 174 |   15.090 |   -0.061 |   -2.171 |  15.581 |  7.26e-05 | -2.21e-05 | -2.71e-05 |
    |   20 |  91 | 126 | 191 |   10.429 |   -1.709 |    1.887 |  11.840 |  5.26e-05 | -2.33e-05 |  2.36e-05 |
    |   21 | 112 |  89 | 132 |   13.031 |   -1.478 |   -0.636 |  13.874 |  6.48e-05 | -2.59e-05 | -7.96e-06 |
    |   22 |  65 | 126 | 156 |   10.554 |   -0.678 |    1.120 |  11.080 |  5.17e-05 | -1.85e-05 |  1.40e-05 |
    |   23 | 119 | 134 | 162 |   11.212 |   -0.890 |   -0.696 |  11.745 |  5.52e-05 | -2.04e-05 | -8.69e-06 |
    |   24 | 109 | 128 | 173 |   10.055 |    0.179 |   -0.488 |  10.003 |  4.81e-05 | -1.36e-05 | -6.11e-06 |
    |   25 | 134 | 119 | 184 |   10.104 |   -1.404 |   -1.182 |  11.066 |  5.06e-05 | -2.13e-05 | -1.48e-05 |
    |   26 |  90 |  91 | 144 |   13.102 |   -1.385 |    2.100 |  14.317 |  6.50e-05 | -2.56e-05 |  2.63e-05 |
    |   27 | 130 |  85 | 167 |   10.062 |   -0.496 |    3.130 |  11.657 |  4.91e-05 | -1.69e-05 |  3.91e-05 |
    |   28 | 163 | 149 | 170 |   10.023 |   -0.216 |    0.065 |  10.133 |  4.85e-05 | -1.55e-05 |  8.10e-07 |
    |   29 |  89 | 127 | 132 |   13.921 |   -1.259 |   -1.980 |  14.989 |  6.87e-05 | -2.61e-05 | -2.48e-05 |
    |   30 | 146 | 104 | 168 |   11.456 |   -1.936 |   -1.868 |  12.948 |  5.79e-05 | -2.58e-05 | -2.34e-05 |
    |   31 |  85 | 130 | 169 |    7.387 |   -0.763 |    1.596 |   8.272 |  3.66e-05 | -1.43e-05 |  1.99e-05 |
    |   32 | 105 | 106 | 172 |   17.002 |    3.157 |   -0.128 |  15.665 |  7.72e-05 | -9.34e-06 | -1.60e-06 |
    |   33 | 104 | 146 | 178 |   10.546 |   -1.107 |   -1.324 |  11.374 |  5.23e-05 | -2.05e-05 | -1.65e-05 |
    |   34 | 105 | 172 | 182 |   17.277 |    2.937 |   -0.208 |  16.015 |  7.88e-05 | -1.08e-05 | -2.60e-06 |
    |   35 | 150 | 165 | 173 |    9.771 |    0.853 |   -0.410 |   9.400 |  4.57e-05 | -9.99e-06 | -5.13e-06 |
    |   36 | 132 | 127 | 152 |   10.839 |   -1.767 |   -1.818 |  12.234 |  5.47e-05 | -2.41e-05 | -2.27e-05 |
    |   37 | 105 | 182 | 199 |   15.893 |    2.534 |   -0.092 |  14.791 |  7.28e-05 | -1.07e-05 | -1.15e-06 |
    |   38 | 112 | 110 | 199 |   14.438 |    0.307 |    0.129 |  14.289 |  6.90e-05 | -1.93e-05 |  1.61e-06 |
    |   39 | 124 | 163 | 170 |   10.066 |   -0.241 |    0.134 |  10.191 |  4.87e-05 | -1.57e-05 |  1.68e-06 |
    |   40 | 131 | 137 | 177 |   16.814 |    3.872 |    1.341 |  15.426 |  7.52e-05 | -5.63e-06 |  1.68e-05 |
    |   41 | 110 | 105 | 199 |   16.150 |    0.912 |   -0.178 |  15.717 |  7.63e-05 | -1.89e-05 | -2.23e-06 |
    |   42 | 127 |  68 | 152 |   11.184 |   -0.799 |   -1.994 |  12.107 |  5.49e-05 | -2.00e-05 | -2.49e-05 |
    |   43 |  25 |  26 | 164 |    2.861 |    0.837 |   -1.818 |   4.051 |  1.25e-05 | -1.01e-07 | -2.27e-05 |
    |   44 |  63 | 149 | 163 |   10.076 |   -0.138 |    0.032 |  10.146 |  4.86e-05 | -1.52e-05 |  3.97e-07 |
    |   45 | 165 | 109 | 173 |   10.199 |    0.977 |   -0.396 |   9.771 |  4.76e-05 | -1.00e-05 | -4.95e-06 |
    |   46 | 167 | 151 | 202 |   11.479 |   -0.434 |    4.103 |  13.691 |  5.58e-05 | -1.86e-05 |  5.13e-05 |
    |   47 |  18 |  19 |  78 |    2.716 |    0.590 |    1.321 |   3.370 |  1.22e-05 | -1.08e-06 |  1.65e-05 |
    |   48 | 150 |  64 | 165 |   10.013 |    1.873 |   -0.196 |   9.226 |  4.54e-05 | -5.44e-06 | -2.45e-06 |
    |   49 | 135 |  70 | 136 |    9.170 |   -0.598 |   -0.854 |   9.598 |  4.49e-05 | -1.61e-05 | -1.07e-05 |
    |   50 | 133 |  69 | 134 |    9.379 |   -0.584 |   -0.899 |   9.808 |  4.59e-05 | -1.63e-05 | -1.12e-05 |
    |   51 |  53 |  70 | 135 |    9.263 |   -0.034 |   -0.353 |   9.300 |  4.46e-05 | -1.35e-05 | -4.41e-06 |
    |   52 |  28 |  69 | 133 |    9.400 |   -0.040 |   -0.465 |   9.454 |  4.52e-05 | -1.37e-05 | -5.81e-06 |
    |   53 |  65 |  17 | 142 |    8.590 |   -0.118 |    0.731 |   8.742 |  4.15e-05 | -1.30e-05 |  9.14e-06 |
    |   54 |  85 | 151 | 167 |    8.684 |   -0.936 |    2.365 |  10.060 |  4.31e-05 | -1.70e-05 |  2.96e-05 |
    |   55 |  43 |  44 |  85 |    2.847 |    0.509 |    1.241 |   3.397 |  1.30e-05 | -1.66e-06 |  1.55e-05 |
    |   56 |  82 | 128 | 189 |    9.971 |    0.039 |   -0.390 |   9.975 |  4.79e-05 | -1.42e-05 | -4.88e-06 |
    |   57 | 129 |  71 | 181 |    9.709 |   -0.182 |    0.473 |   9.836 |  4.69e-05 | -1.49e-05 |  5.92e-06 |
    |   58 |  67 |  52 | 135 |    8.456 |   -0.049 |   -0.769 |   8.585 |  4.07e-05 | -1.24e-05 | -9.62e-06 |
    |   59 |  68 |  27 | 133 |    8.834 |   -0.046 |   -0.966 |   9.013 |  4.25e-05 | -1.30e-05 | -1.21e-05 |
    |   60 |  51 |  52 |  67 |    5.766 |   -0.437 |   -1.121 |   6.303 |  2.84e-05 | -1.04e-05 | -1.40e-05 |
    |   61 |  26 |  27 |  68 |    5.951 |   -0.350 |   -1.211 |   6.482 |  2.91e-05 | -1.03e-05 | -1.51e-05 |
    |   62 |  73 |  83 | 103 |   17.119 |    3.922 |   -1.288 |  15.693 |  7.66e-05 | -5.83e-06 | -1.61e-05 |
    |   63 |  28 |  29 |  69 |    9.245 |   -0.211 |   -0.361 |   9.374 |  4.48e-05 | -1.44e-05 | -4.51e-06 |
    |   64 |  53 |  54 |  70 |    8.820 |   -0.154 |   -0.257 |   8.909 |  4.26e-05 | -1.35e-05 | -3.22e-06 |
    |   65 |  30 |  31 |  81 |    9.961 |   -0.045 |   -0.043 |   9.984 |  4.80e-05 | -1.46e-05 | -5.38e-07 |
    |   66 |  55 |  56 |  82 |    9.575 |    0.278 |   -0.238 |   9.448 |  4.56e-05 | -1.25e-05 | -2.98e-06 |
    |   67 | 106 | 140 | 172 |   19.277 |    3.559 |   -0.088 |  17.767 |  8.75e-05 | -1.07e-05 | -1.10e-06 |
    |   68 |  18 |  78 | 142 |    7.296 |   -0.188 |    1.289 |   7.722 |  3.54e-05 | -1.14e-05 |  1.61e-05 |
    |   69 | 130 |  66 | 169 |    8.767 |   -0.303 |    1.877 |   9.496 |  4.26e-05 | -1.41e-05 |  2.35e-05 |
    |   70 | 140 | 106 | 171 |   19.193 |    2.422 |    0.114 |  18.105 |  8.88e-05 | -1.60e-05 |  1.42e-06 |
    |   71 |  52 |  53 | 135 |    7.806 |   -0.320 |   -0.584 |   8.035 |  3.80e-05 | -1.28e-05 | -7.30e-06 |
    |   72 |  27 |  28 | 133 |    8.037 |   -0.412 |   -0.729 |   8.347 |  3.92e-05 | -1.36e-05 | -9.12e-06 |
    |   73 | 120 | 118 | 121 |   10.488 |   -0.637 |    0.194 |  10.826 |  5.13e-05 | -1.82e-05 |  2.43e-06 |
    |   74 |  39 |  40 |  71 |    9.785 |   -0.071 |    0.121 |   9.823 |  4.71e-05 | -1.45e-05 |  1.51e-06 |
    |   75 |  14 |  15 |  72 |    9.249 |    0.025 |    0.136 |   9.239 |  4.44e-05 | -1.32e-05 |  1.70e-06 |
    |   76 |  50 |  51 | 145 |    2.726 |    0.641 |   -1.351 |   3.402 |  1.22e-05 | -8.51e-07 | -1.69e-05 |
    |   77 | 105 |  75 | 106 |   17.747 |    4.222 |    1.483 |  16.262 |  7.92e-05 | -5.30e-06 |  1.85e-05 |
    |   78 |  97 |  98 | 102 |   10.462 |   -0.024 |    0.217 |  10.481 |  5.03e-05 | -1.52e-05 |  2.71e-06 |
    |   79 | 120 | 121 | 124 |   10.183 |   -0.537 |    0.228 |  10.470 |  4.97e-05 | -1.73e-05 |  2.85e-06 |
    |   80 | 128 |  70 | 189 |    9.515 |   -0.085 |   -0.207 |   9.565 |  4.59e-05 | -1.41e-05 | -2.59e-06 |
    |   81 |  73 | 103 | 138 |   20.094 |    3.053 |   -1.485 |  18.930 |  9.22e-05 | -1.43e-05 | -1.86e-05 |
    |   82 | 103 | 140 | 171 |   19.007 |    2.354 |   -0.158 |  17.948 |  8.80e-05 | -1.61e-05 | -1.98e-06 |
    |   83 | 106 |  75 | 141 |   20.128 |    2.895 |    1.435 |  19.012 |  9.26e-05 | -1.51e-05 |  1.79e-05 |
    |   84 | 145 |  67 | 146 |    7.425 |   -0.851 |   -2.141 |   8.713 |  3.69e-05 | -1.48e-05 | -2.68e-05 |
    |   85 |  97 |  96 |  98 |   10.647 |   -0.432 |   -0.007 |  10.870 |  5.18e-05 | -1.74e-05 | -9.04e-08 |
    |   86 | 121 | 118 | 122 |   10.483 |   -0.672 |   -0.041 |  10.835 |  5.14e-05 | -1.84e-05 | -5.06e-07 |
    |   87 |  98 |  96 | 108 |   10.639 |   -0.377 |   -0.149 |  10.836 |  5.17e-05 | -1.72e-05 | -1.86e-06 |
    |   88 | 103 |  83 | 131 |   17.208 |    3.801 |    0.365 |  15.670 |  7.72e-05 | -6.55e-06 |  4.56e-06 |
    |   89 | 108 | 190 | 203 |   10.655 |   -0.463 |   -0.403 |  10.916 |  5.19e-05 | -1.76e-05 | -5.04e-06 |
    |   90 | 121 | 122 | 123 |   10.199 |   -0.576 |   -0.109 |  10.501 |  4.99e-05 | -1.75e-05 | -1.36e-06 |
    |   91 |  47 |  48 | 138 |   21.907 |    1.489 |   -0.964 |  21.267 |  1.03e-04 | -2.44e-05 | -1.20e-05 |
    |   92 |  48 |  73 | 138 |   19.266 |    0.144 |   -1.841 |  19.458 |  9.24e-05 | -2.71e-05 | -2.30e-05 |
    |   93 |  98 | 108 | 109 |   10.339 |   -0.033 |   -0.334 |  10.371 |  4.98e-05 | -1.51e-05 | -4.18e-06 |
    |   94 |  47 | 138 | 141 |   19.908 |   -0.017 |   -0.021 |  19.917 |  9.57e-05 | -2.88e-05 | -2.63e-07 |
    |   95 |  21 |  22 |  77 |   21.556 |    1.663 |    0.871 |  20.829 |  1.01e-04 | -2.31e-05 |  1.09e-05 |
    |   96 |  23 |  79 | 139 |   19.464 |    0.134 |   -1.811 |  19.649 |  9.34e-05 | -2.74e-05 | -2.26e-05 |
    |   97 |   9 |  46 |  75 |   26.780 |    3.774 |    4.158 |  26.120 |  1.23e-04 | -2.05e-05 |  5.20e-05 |
    |   98 |  23 |   4 |  79 |   26.806 |    3.699 |   -4.111 |  26.149 |  1.24e-04 | -2.09e-05 | -5.14e-05 |
    |   99 |  22 |  23 | 139 |   21.897 |    1.469 |   -0.951 |  21.265 |  1.03e-04 | -2.45e-05 | -1.19e-05 |
    |  100 |  77 |  22 | 139 |   19.776 |    0.081 |   -0.074 |  19.736 |  9.50e-05 | -2.81e-05 | -9.24e-07 |
    |  101 |  16 |  17 |  65 |    7.855 |   -0.279 |    0.618 |   8.069 |  3.82e-05 | -1.27e-05 |  7.73e-06 |
    |  102 |  77 | 139 | 140 |   20.522 |    2.537 |    0.041 |  19.379 |  9.50e-05 | -1.74e-05 |  5.08e-07 |
    |  103 |  41 |  42 |  66 |    8.147 |   -0.164 |    0.593 |   8.294 |  3.94e-05 | -1.25e-05 |  7.42e-06 |
    |  104 |  48 |  10 |  73 |   26.861 |    3.775 |   -4.182 |  26.207 |  1.24e-04 | -2.06e-05 | -5.23e-05 |
    |  105 |  46 |  47 | 141 |   21.939 |    1.500 |    0.927 |  21.289 |  1.03e-04 | -2.44e-05 |  1.16e-05 |
    |  106 |  75 |  46 | 141 |   19.381 |    0.139 |    1.818 |  19.567 |  9.30e-05 | -2.73e-05 |  2.27e-05 |
    |  107 |  66 | 129 | 181 |    9.189 |   -0.353 |    0.638 |   9.435 |  4.47e-05 | -1.50e-05 |  7.98e-06 |
    |  108 | 117 | 118 | 120 |   10.363 |   -0.928 |    0.377 |  10.877 |  5.12e-05 | -1.94e-05 |  4.71e-06 |
    |  109 | 117 | 116 | 118 |   11.032 |   -1.031 |    0.363 |  11.599 |  5.45e-05 | -2.09e-05 |  4.54e-06 |
    |  110 |  51 |  67 | 145 |    7.673 |   -0.235 |   -1.349 |   8.136 |  3.72e-05 | -1.22e-05 | -1.69e-05 |
    |  111 |  71 | 129 | 200 |    9.865 |   -0.250 |    0.388 |  10.015 |  4.78e-05 | -1.54e-05 |  4.85e-06 |
    |  112 |  95 |  96 |  97 |   10.731 |   -0.798 |    0.208 |  11.157 |  5.27e-05 | -1.93e-05 |  2.60e-06 |
    |  113 | 123 | 122 | 125 |   10.268 |   -0.373 |   -0.206 |  10.466 |  4.99e-05 | -1.66e-05 | -2.58e-06 |
    |  114 | 109 | 108 | 128 |   10.348 |   -0.014 |   -0.269 |  10.366 |  4.98e-05 | -1.50e-05 | -3.36e-06 |
    |  115 |  95 |  97 | 107 |   10.784 |   -0.654 |    0.399 |  11.146 |  5.28e-05 | -1.87e-05 |  4.99e-06 |
    |  116 | 114 | 112 | 132 |   13.653 |   -1.603 |   -0.599 |  14.558 |  6.80e-05 | -2.74e-05 | -7.48e-06 |
    |  117 | 119 | 114 | 132 |   12.179 |   -1.861 |   -0.441 |  13.230 |  6.12e-05 | -2.65e-05 | -5.51e-06 |
    |  118 |  95 |  94 |  96 |   11.197 |   -1.076 |    0.078 |  11.773 |  5.54e-05 | -2.13e-05 |  9.75e-07 |
    |  119 |  69 |  29 | 161 |    9.823 |    0.012 |   -0.233 |   9.825 |  4.72e-05 | -1.41e-05 | -2.92e-06 |
    |  120 |  30 |  81 | 161 |    9.891 |    0.007 |   -0.073 |   9.888 |  4.75e-05 | -1.42e-05 | -9.11e-07 |
    |  121 |  77 | 131 | 177 |   20.538 |    3.924 |    2.417 |  19.342 |  9.31e-05 | -1.08e-05 |  3.02e-05 |
    |  122 |  33 |  34 | 148 |   10.003 |   -0.058 |   -0.022 |  10.032 |  4.82e-05 | -1.47e-05 | -2.77e-07 |
    |  123 | 116 | 114 | 119 |   11.994 |   -1.508 |   -0.258 |  12.822 |  5.98e-05 | -2.45e-05 | -3.23e-06 |
    |  124 |  17 |  18 | 142 |    5.764 |   -0.378 |    1.154 |   6.287 |  2.83e-05 | -1.01e-05 |  1.44e-05 |
    |  125 |  94 |  92 | 104 |   12.027 |   -1.645 |   -0.541 |  12.963 |  6.02e-05 | -2.53e-05 | -6.77e-06 |
    |  126 |  38 |  39 | 153 |    9.971 |   -0.060 |    0.043 |  10.001 |  4.80e-05 | -1.47e-05 |  5.32e-07 |
    |  127 |  13 |  14 | 154 |    9.543 |    0.249 |    0.278 |   9.433 |  4.55e-05 | -1.26e-05 |  3.48e-06 |
    |  128 |  58 |  59 | 150 |    9.649 |    2.895 |   -0.478 |   8.616 |  4.22e-05 |  0.00e+00 | -5.97e-06 |
    |  129 | 117 | 120 | 129 |   10.457 |   -0.574 |    0.574 |  10.802 |  5.11e-05 | -1.78e-05 |  7.17e-06 |
    |  130 |  72 |  15 | 160 |    9.437 |    0.004 |    0.090 |   9.436 |  4.54e-05 | -1.36e-05 |  1.12e-06 |
    |  131 |  36 |  37 |  99 |    9.984 |   -0.007 |    0.017 |   9.988 |  4.80e-05 | -1.44e-05 |  2.12e-07 |
    |  132 |  61 |  62 | 100 |    9.823 |    2.947 |    0.989 |   8.897 |  4.30e-05 |  0.00e+00 |  1.24e-05 |
    |  133 |  35 |  36 | 149 |   10.007 |   -0.060 |    0.021 |  10.037 |  4.82e-05 | -1.47e-05 |  2.58e-07 |
    |  134 |  60 |  61 | 147 |    9.669 |    2.901 |    0.489 |   8.636 |  4.23e-05 |  0.00e+00 |  6.12e-06 |
    |  135 |  34 |  35 |  63 |   10.028 |   -0.095 |   -0.001 |  10.076 |  4.83e-05 | -1.49e-05 | -8.69e-09 |
    |  136 |  59 |  60 |  64 |    9.694 |    2.908 |    0.021 |   8.616 |  4.24e-05 |  0.00e+00 |  2.60e-07 |
    |  137 |  76 |  75 | 105 |   16.504 |    2.625 |    0.492 |  15.384 |  7.56e-05 | -1.12e-05 |  6.15e-06 |
    |  138 | 129 |  66 | 180 |    9.841 |   -0.704 |    1.064 |  10.376 |  4.83e-05 | -1.76e-05 |  1.33e-05 |
    |  139 |  73 |  74 |  83 |   17.071 |    2.556 |   -0.542 |  15.975 |  7.84e-05 | -1.23e-05 | -6.78e-06 |
    |  140 | 190 | 136 | 203 |    9.984 |   -1.090 |   -0.763 |  10.653 |  4.96e-05 | -1.96e-05 | -9.54e-06 |
    |  141 |  93 |  94 |  95 |   11.270 |   -1.492 |    0.303 |  12.096 |  5.63e-05 | -2.34e-05 |  3.79e-06 |
    |  142 |  79 |   4 |  80 |   17.460 |    4.746 |   -3.691 |  16.893 |  7.71e-05 | -2.37e-06 | -4.61e-05 |
    |  143 |  91 |  93 | 126 |   12.478 |   -1.314 |    1.331 |  13.384 |  6.19e-05 | -2.43e-05 |  1.66e-05 |
    |  144 |   9 |  75 |  76 |   17.518 |    4.846 |    3.717 |  16.938 |  7.72e-05 | -1.97e-06 |  4.65e-05 |
    |  145 | 136 | 104 | 178 |   10.056 |   -1.261 |   -1.271 |  10.965 |  5.02e-05 | -2.06e-05 | -1.59e-05 |
    |  146 | 102 |  98 | 165 |   10.295 |    0.365 |   -0.069 |  10.118 |  4.90e-05 | -1.31e-05 | -8.65e-07 |
    |  147 |  84 |  90 | 137 |   15.597 |    0.140 |   -0.171 |  15.531 |  7.48e-05 | -2.18e-05 | -2.14e-06 |
    |  148 |  84 |  87 |  90 |   14.522 |   -0.835 |    0.543 |  14.987 |  7.10e-05 | -2.50e-05 |  6.79e-06 |
    |  149 | 121 | 123 | 163 |   10.219 |   -0.394 |   -0.000 |  10.421 |  4.97e-05 | -1.66e-05 | -5.03e-09 |
    |  150 | 115 | 116 | 117 |   10.951 |   -1.445 |    0.601 |  11.786 |  5.47e-05 | -2.27e-05 |  7.52e-06 |
    |  151 |  16 |  65 | 160 |    9.328 |   -0.016 |    0.428 |   9.366 |  4.49e-05 | -1.35e-05 |  5.35e-06 |
    |  152 |  93 |  92 |  94 |   12.087 |   -1.551 |    0.308 |  12.944 |  6.03e-05 | -2.49e-05 |  3.85e-06 |
    |  153 | 145 | 101 | 195 |    6.449 |    2.601 |   -4.236 |   9.242 |  2.73e-05 |  3.20e-06 | -5.30e-05 |
    |  154 |   5 |  25 | 198 |   -0.157 |    1.534 |   -0.289 |   1.694 | -2.97e-06 |  7.60e-06 | -3.61e-06 |
    |  155 |  78 | 143 | 144 |    9.060 |   -0.555 |    2.601 |  10.378 |  4.44e-05 | -1.57e-05 |  3.25e-05 |
    |  156 | 122 | 118 | 162 |   10.520 |   -0.971 |   -0.191 |  11.042 |  5.20e-05 | -1.98e-05 | -2.38e-06 |
    |  157 | 113 | 115 | 130 |   11.836 |   -1.279 |    1.658 |  12.849 |  5.87e-05 | -2.32e-05 |  2.07e-05 |
    |  158 |  34 |  63 | 148 |   10.002 |   -0.143 |   -0.017 |  10.075 |  4.83e-05 | -1.51e-05 | -2.14e-07 |
    |  159 |  59 |  64 | 150 |    9.297 |    1.654 |   -0.245 |   8.600 |  4.23e-05 | -5.46e-06 | -3.06e-06 |
    |  160 | 115 | 114 | 116 |   11.931 |   -1.516 |    0.623 |  12.803 |  5.95e-05 | -2.45e-05 |  7.79e-06 |
    |  161 |  36 |  99 | 149 |   10.002 |   -0.085 |    0.025 |  10.045 |  4.82e-05 | -1.48e-05 |  3.11e-07 |
    |  162 |  61 | 100 | 147 |    9.389 |    1.735 |    0.693 |   8.736 |  4.26e-05 | -5.20e-06 |  8.66e-06 |
    |  163 |  63 |  35 | 149 |   10.001 |   -0.160 |    0.017 |  10.082 |  4.83e-05 | -1.52e-05 |  2.14e-07 |
    |  164 |  64 |  60 | 147 |    9.339 |    1.763 |    0.259 |   8.606 |  4.24e-05 | -4.99e-06 |  3.24e-06 |
    |  165 | 123 | 125 | 158 |    9.964 |   -0.402 |   -0.214 |  10.178 |  4.85e-05 | -1.63e-05 | -2.68e-06 |
    |  166 | 131 |  83 | 137 |   16.734 |    2.700 |   -0.167 |  15.563 |  7.66e-05 | -1.12e-05 | -2.09e-06 |
    |  167 |  73 |  10 |  74 |   16.234 |    4.931 |   -3.715 |  15.786 |  7.09e-05 |  2.93e-07 | -4.64e-05 |
    |  168 |  66 | 130 | 180 |   10.007 |   -0.646 |    1.210 |  10.556 |  4.90e-05 | -1.75e-05 |  1.51e-05 |
    |  169 |  91 |  92 |  93 |   12.009 |   -1.871 |    0.496 |  13.074 |  6.04e-05 | -2.63e-05 |  6.20e-06 |
    |  170 |  43 |  85 | 169 |    7.584 |   -0.096 |    1.553 |   8.093 |  3.66e-05 | -1.14e-05 |  1.94e-05 |
    |  171 | 122 | 162 | 175 |   10.638 |   -0.613 |   -0.396 |  10.979 |  5.20e-05 | -1.83e-05 | -4.95e-06 |
    |  172 | 140 | 103 | 197 |   19.226 |    2.736 |   -0.019 |  18.014 |  8.85e-05 | -1.46e-05 | -2.37e-07 |
    |  173 |  95 | 107 | 156 |   10.278 |   -1.038 |    0.651 |  10.893 |  5.09e-05 | -1.98e-05 |  8.13e-06 |
    |  174 |  91 |  87 |  92 |   13.296 |   -1.897 |    0.501 |  14.365 |  6.67e-05 | -2.83e-05 |  6.26e-06 |
    |  175 | 119 | 132 | 152 |   12.081 |   -1.266 |   -1.485 |  13.018 |  5.99e-05 | -2.35e-05 | -1.86e-05 |
    |  176 |  76 | 105 | 110 |   15.748 |    1.642 |    1.075 |  15.110 |  7.33e-05 | -1.48e-05 |  1.34e-05 |
    |  177 | 137 |  90 | 166 |   15.303 |    0.786 |    1.808 |  15.250 |  7.24e-05 | -1.83e-05 |  2.26e-05 |
    |  178 | 113 | 114 | 115 |   11.737 |   -1.778 |    0.780 |  12.792 |  5.90e-05 | -2.55e-05 |  9.75e-06 |
    |  179 |  90 |  87 |  91 |   14.291 |   -1.454 |    0.229 |  15.076 |  7.08e-05 | -2.76e-05 |  2.87e-06 |
    |  180 |  20 |   3 | 143 |    8.716 |    5.157 |    6.486 |  13.558 |  3.45e-05 |  1.22e-05 |  8.11e-05 |
    |  181 |  83 |  74 |  84 |   15.861 |    1.160 |   -1.386 |  15.501 |  7.46e-05 | -1.73e-05 | -1.73e-05 |
    |  182 | 113 | 112 | 114 |   13.313 |   -1.697 |    0.889 |  14.321 |  6.65e-05 | -2.74e-05 |  1.11e-05 |
    |  183 |  39 |  71 | 153 |    9.879 |   -0.004 |    0.079 |   9.882 |  4.75e-05 | -1.43e-05 |  9.90e-07 |
    |  184 |  14 |  72 | 154 |    9.937 |   -0.007 |    0.118 |   9.942 |  4.78e-05 | -1.44e-05 |  1.48e-06 |
    |  185 | 116 | 119 | 162 |   10.901 |   -1.541 |   -0.369 |  11.765 |  5.46e-05 | -2.31e-05 | -4.61e-06 |
    |  186 |  80 |   4 |  88 |   14.405 |    1.817 |   -1.868 |  13.968 |  6.66e-05 | -1.20e-05 | -2.33e-05 |
    |  187 |  83 |  84 | 137 |   16.010 |    1.785 |    0.565 |  15.228 |  7.44e-05 | -1.45e-05 |  7.06e-06 |
    |  188 |  33 | 148 | 157 |   10.002 |   -0.094 |   -0.024 |  10.049 |  4.82e-05 | -1.49e-05 | -3.04e-07 |
    |  189 |  68 | 133 | 184 |    8.492 |   -0.994 |   -1.450 |   9.373 |  4.23e-05 | -1.70e-05 | -1.81e-05 |
    |  190 | 126 |  93 | 156 |   10.328 |   -1.720 |    1.253 |  11.494 |  5.21e-05 | -2.32e-05 |  1.57e-05 |
    |  191 |  45 |   9 | 151 |    8.575 |    4.936 |    6.753 |  13.870 |  3.41e-05 |  1.14e-05 |  8.44e-05 |
    |  192 |  58 | 150 | 159 |    9.378 |    1.734 |   -0.696 |   8.726 |  4.26e-05 | -5.19e-06 | -8.70e-06 |
    |  193 | 146 |  67 | 178 |   10.230 |   -0.487 |   -2.021 |  11.051 |  4.99e-05 | -1.71e-05 | -2.53e-05 |
    |  194 |  32 |  33 | 157 |    9.982 |   -0.005 |   -0.015 |   9.985 |  4.80e-05 | -1.44e-05 | -1.89e-07 |
    |  195 |  57 |  58 | 159 |    9.815 |    2.945 |   -0.995 |   8.893 |  4.29e-05 |  0.00e+00 | -1.24e-05 |
    |  196 | 104 | 136 | 190 |   11.146 |   -0.821 |   -0.705 |  11.643 |  5.48e-05 | -2.00e-05 | -8.81e-06 |
    |  197 | 135 | 136 | 178 |   10.098 |   -0.346 |   -0.985 |  10.416 |  4.90e-05 | -1.62e-05 | -1.23e-05 |
    |  198 |  84 |  86 |  87 |   14.851 |   -0.763 |   -1.238 |  15.397 |  7.25e-05 | -2.51e-05 | -1.55e-05 |
    |  199 |  93 |  95 | 156 |   11.457 |   -0.951 |    0.775 |  12.036 |  5.65e-05 | -2.11e-05 |  9.68e-06 |
    |  200 |  84 |  74 |  86 |   14.414 |    0.156 |   -0.654 |  14.382 |  6.91e-05 | -2.00e-05 | -8.18e-06 |
    |  201 | 111 | 112 | 113 |   13.276 |   -1.442 |    0.758 |  14.114 |  6.59e-05 | -2.61e-05 |  9.48e-06 |
    |  202 |  99 | 153 | 170 |    9.984 |   -0.099 |    0.071 |  10.035 |  4.81e-05 | -1.49e-05 |  8.94e-07 |
    |  203 |  10 |  49 | 101 |    8.743 |    5.340 |   -6.503 |  13.607 |  3.43e-05 |  1.31e-05 | -8.13e-05 |
    |  204 |  15 |  16 | 160 |    8.757 |   -0.223 |    0.276 |   8.883 |  4.24e-05 | -1.37e-05 |  3.45e-06 |
    |  205 |  50 | 145 | 195 |    2.917 |   -0.295 |   -0.728 |   3.324 |  1.45e-05 | -5.63e-06 | -9.10e-06 |
    |  206 |  76 | 110 | 111 |   15.223 |    0.347 |    0.489 |  15.076 |  7.27e-05 | -2.03e-05 |  6.12e-06 |
    |  207 | 111 | 110 | 112 |   15.166 |   -0.898 |    0.989 |  15.728 |  7.42e-05 | -2.62e-05 |  1.24e-05 |
    |  208 |  80 |  88 |  89 |   14.995 |   -0.002 |   -2.755 |  15.737 |  7.21e-05 | -2.16e-05 | -3.44e-05 |
    |  209 | 102 | 192 | 196 |   10.149 |    1.085 |    0.303 |   9.667 |  4.72e-05 | -9.42e-06 |  3.79e-06 |
    |  210 |  86 | 146 | 168 |   13.401 |   -1.404 |   -1.565 |  14.412 |  6.65e-05 | -2.61e-05 | -1.96e-05 |
    |  211 |  19 |   2 | 193 |    0.007 |    1.096 |    0.243 |   1.171 | -1.55e-06 |  5.26e-06 |  3.03e-06 |
    |  212 |  44 |   8 | 194 |    0.062 |    1.060 |    0.212 |   1.094 | -1.23e-06 |  5.01e-06 |  2.65e-06 |
    |  213 |  29 |  30 | 161 |    9.730 |   -0.135 |   -0.157 |   9.803 |  4.70e-05 | -1.47e-05 | -1.97e-06 |
    |  214 |  70 |  54 | 189 |    9.540 |   -0.028 |   -0.191 |   9.560 |  4.59e-05 | -1.39e-05 | -2.39e-06 |
    |  215 |  55 |  82 | 189 |    9.693 |   -0.055 |   -0.031 |   9.721 |  4.67e-05 | -1.42e-05 | -3.83e-07 |
    |  216 |  89 |  88 | 127 |   11.312 |   -0.832 |   -2.238 |  12.373 |  5.56e-05 | -2.03e-05 | -2.80e-05 |
    |  217 |  11 |  50 | 195 |    0.014 |    1.083 |   -0.255 |   1.163 | -1.49e-06 |  5.19e-06 | -3.19e-06 |
    |  218 | 118 | 116 | 162 |   11.051 |   -1.022 |   -0.118 |  11.597 |  5.46e-05 | -2.09e-05 | -1.47e-06 |
    |  219 |  90 | 144 | 166 |   14.724 |   -0.589 |    1.306 |  15.196 |  7.16e-05 | -2.41e-05 |  1.63e-05 |
    |  220 | 124 | 121 | 163 |   10.169 |   -0.413 |    0.105 |  10.383 |  4.95e-05 | -1.66e-05 |  1.31e-06 |
    |  221 | 100 | 154 | 196 |   10.003 |    0.805 |    0.819 |   9.730 |  4.69e-05 | -1.06e-05 |  1.02e-05 |
    |  222 | 155 | 102 | 196 |   10.102 |    0.322 |    0.484 |   9.980 |  4.81e-05 | -1.30e-05 |  6.04e-06 |
    |  223 | 154 |  72 | 155 |    9.948 |    0.289 |    0.502 |   9.845 |  4.74e-05 | -1.30e-05 |  6.27e-06 |
    |  224 |  71 |  40 | 181 |    9.551 |    0.002 |    0.193 |   9.556 |  4.59e-05 | -1.38e-05 |  2.41e-06 |
    |  225 |  66 |  42 | 169 |    8.070 |   -0.083 |    0.638 |   8.187 |  3.89e-05 | -1.20e-05 |  7.97e-06 |
    |  226 | 134 |  69 | 175 |   10.227 |   -0.346 |   -0.651 |  10.465 |  4.97e-05 | -1.64e-05 | -8.14e-06 |
    |  227 | 157 | 148 | 158 |    9.991 |   -0.097 |   -0.062 |  10.040 |  4.82e-05 | -1.49e-05 | -7.80e-07 |
    |  228 | 162 | 134 | 175 |   10.061 |   -1.203 |   -0.717 |  10.785 |  5.01e-05 | -2.03e-05 | -8.96e-06 |
    |  229 |  70 | 128 | 203 |    9.940 |   -0.364 |   -0.527 |  10.168 |  4.83e-05 | -1.61e-05 | -6.59e-06 |
    |  230 | 152 |  68 | 184 |   10.065 |   -1.137 |   -1.949 |  11.200 |  5.00e-05 | -2.00e-05 | -2.44e-05 |
    |  231 | 131 |  77 | 197 |   18.127 |    2.343 |    1.126 |  17.187 |  8.38e-05 | -1.49e-05 |  1.41e-05 |
    |  232 |  78 |  19 | 193 |    2.927 |   -0.314 |    0.749 |   3.357 |  1.45e-05 | -5.73e-06 |  9.36e-06 |
    |  233 |  97 | 102 | 176 |   10.420 |   -0.123 |    0.275 |  10.493 |  5.03e-05 | -1.56e-05 |  3.43e-06 |
    |  234 |  41 |  66 | 181 |    9.399 |    0.003 |    0.459 |   9.431 |  4.52e-05 | -1.35e-05 |  5.74e-06 |
    |  235 | 127 |  88 | 164 |   11.763 |   -0.066 |   -3.422 |  13.202 |  5.67e-05 | -1.73e-05 | -4.28e-05 |
    |  236 | 140 | 139 | 172 |   18.514 |    1.504 |   -0.619 |  17.841 |  8.68e-05 | -1.95e-05 | -7.73e-06 |
    |  237 | 104 |  92 | 168 |   12.339 |   -1.837 |   -0.676 |  13.404 |  6.20e-05 | -2.66e-05 | -8.44e-06 |
    |  238 | 143 |  78 | 193 |    6.351 |    2.722 |    4.252 |   9.202 |  2.66e-05 |  3.93e-06 |  5.31e-05 |
    |  239 |  21 |  77 | 177 |   19.915 |    0.342 |    1.756 |  19.979 |  9.53e-05 | -2.71e-05 |  2.20e-05 |
    |  240 | 108 |  96 | 190 |   10.595 |   -0.752 |   -0.355 |  11.008 |  5.20e-05 | -1.89e-05 | -4.43e-06 |
    |  241 | 155 |  72 | 176 |   10.089 |   -0.157 |    0.383 |  10.190 |  4.87e-05 | -1.53e-05 |  4.78e-06 |
    |  242 |  98 | 109 | 165 |   10.237 |    0.232 |   -0.141 |  10.126 |  4.89e-05 | -1.37e-05 | -1.76e-06 |
    |  243 | 119 | 152 | 184 |   10.879 |   -1.177 |   -1.193 |  11.697 |  5.40e-05 | -2.14e-05 | -1.49e-05 |
    |  244 | 106 | 141 | 171 |   19.097 |    1.522 |    0.390 |  18.395 |  8.96e-05 | -2.02e-05 |  4.88e-06 |
    |  245 |  81 | 157 | 158 |    9.987 |   -0.132 |   -0.068 |  10.055 |  4.82e-05 | -1.50e-05 | -8.53e-07 |
    |  246 | 138 | 103 | 171 |   19.109 |    1.625 |   -0.456 |  18.368 |  8.95e-05 | -1.98e-05 | -5.69e-06 |
    |  247 | 154 | 155 | 196 |   10.067 |    0.590 |    0.360 |   9.805 |  4.75e-05 | -1.17e-05 |  4.50e-06 |
    |  248 | 113 | 130 | 167 |   10.544 |   -1.476 |    1.763 |  11.757 |  5.28e-05 | -2.23e-05 |  2.20e-05 |
    |  249 |   7 |  38 | 185 |   10.010 |   -0.015 |   -0.003 |  10.017 |  4.81e-05 | -1.45e-05 | -4.21e-08 |
    |  250 |   1 |  13 | 186 |   11.801 |    1.430 |    1.617 |  11.501 |  5.47e-05 | -1.01e-05 |  2.02e-05 |
    |  251 |  85 |  44 | 194 |    3.236 |   -0.297 |    0.863 |   3.709 |  1.60e-05 | -6.10e-06 |  1.08e-05 |
    |  252 | 102 | 155 | 176 |   10.192 |    0.362 |    0.359 |  10.035 |  4.85e-05 | -1.30e-05 |  4.49e-06 |
    |  253 |  31 |   6 | 187 |   10.007 |   -0.020 |   -0.000 |  10.017 |  4.81e-05 | -1.45e-05 | -5.99e-09 |
    |  254 |  56 |  12 | 188 |   11.836 |    1.475 |   -1.599 |  11.510 |  5.48e-05 | -9.98e-06 | -2.00e-05 |
    |  255 |  94 | 104 | 190 |   10.906 |   -1.522 |   -0.599 |  11.788 |  5.46e-05 | -2.30e-05 | -7.49e-06 |
    |  256 | 117 | 129 | 180 |    9.965 |   -0.948 |    0.816 |  10.567 |  4.93e-05 | -1.89e-05 |  1.02e-05 |
    |  257 | 151 |  85 | 194 |    6.444 |    2.816 |    4.125 |   9.075 |  2.69e-05 |  4.24e-06 |  5.16e-05 |
    |  258 |  37 |   7 | 185 |    9.989 |    0.012 |   -0.004 |   9.983 |  4.80e-05 | -1.44e-05 | -4.98e-08 |
    |  259 |  62 |   1 | 186 |   10.421 |    3.126 |    1.580 |   9.658 |  4.56e-05 |  0.00e+00 |  1.97e-05 |
    |  260 |   6 |  32 | 187 |    9.992 |    0.012 |    0.004 |   9.986 |  4.80e-05 | -1.44e-05 |  4.41e-08 |
    |  261 |  12 |  57 | 188 |   10.433 |    3.130 |   -1.592 |   9.674 |  4.56e-05 |  0.00e+00 | -1.99e-05 |
    |  262 |  87 |  86 | 168 |   13.002 |   -1.427 |   -0.786 |  13.839 |  6.46e-05 | -2.56e-05 | -9.83e-06 |
    |  263 | 130 | 115 | 180 |    9.946 |   -1.465 |    1.485 |  11.058 |  4.99e-05 | -2.14e-05 |  1.86e-05 |
    |  264 | 158 | 148 | 183 |    9.999 |   -0.233 |   -0.078 |  10.119 |  4.84e-05 | -1.55e-05 | -9.74e-07 |
    |  265 |   4 |  24 | 201 |    6.067 |    5.656 |   -5.810 |  11.652 |  2.10e-05 |  1.84e-05 | -7.26e-05 |
    |  266 | 144 | 143 | 166 |   12.428 |   -0.222 |    4.073 |  14.389 |  6.01e-05 | -1.90e-05 |  5.09e-05 |
    |  267 |   9 |  76 | 202 |   13.909 |    1.893 |    1.848 |  13.452 |  6.41e-05 | -1.10e-05 |  2.31e-05 |
    |  268 | 123 | 158 | 183 |   10.134 |   -0.183 |   -0.106 |  10.229 |  4.90e-05 | -1.55e-05 | -1.33e-06 |
    |  269 | 143 |   3 | 166 |   14.307 |    1.082 |    2.629 |  14.530 |  6.72e-05 | -1.54e-05 |  3.29e-05 |
    |  270 |   2 |  20 | 193 |    1.440 |   -0.290 |    0.388 |   1.739 |  7.34e-06 | -3.47e-06 |  4.84e-06 |
    |  271 | 146 |  86 | 174 |   10.685 |   -1.480 |   -2.768 |  12.456 |  5.35e-05 | -2.25e-05 | -3.46e-05 |
    |  272 |  38 | 153 | 185 |    9.973 |    0.002 |    0.010 |   9.972 |  4.79e-05 | -1.44e-05 |  1.27e-07 |
    |  273 |  13 | 154 | 186 |   10.355 |   -0.176 |    0.541 |  10.486 |  5.00e-05 | -1.58e-05 |  6.76e-06 |
    |  274 | 101 | 145 | 174 |    9.290 |   -0.584 |   -2.333 |  10.411 |  4.55e-05 | -1.62e-05 | -2.92e-05 |
    |  275 |   8 |  45 | 194 |    1.537 |   -0.185 |    0.494 |   1.848 |  7.66e-06 | -3.11e-06 |  6.18e-06 |
    |  276 |  49 |  11 | 195 |    1.419 |   -0.289 |   -0.372 |   1.710 |  7.24e-06 | -3.44e-06 | -4.65e-06 |
    |  277 | 170 | 153 | 179 |    9.935 |   -0.085 |    0.142 |   9.980 |  4.79e-05 | -1.47e-05 |  1.77e-06 |
    |  278 |  82 | 159 | 173 |    9.999 |    0.628 |   -0.770 |   9.792 |  4.72e-05 | -1.14e-05 | -9.63e-06 |
    |  279 |  88 |   4 | 201 |   14.419 |    1.731 |   -4.711 |  15.891 |  6.68e-05 | -1.25e-05 | -5.89e-05 |
    |  280 | 120 | 124 | 200 |   10.224 |   -0.332 |    0.338 |  10.410 |  4.96e-05 | -1.63e-05 |  4.22e-06 |
    |  281 | 151 |   9 | 202 |   14.221 |    0.222 |    2.824 |  14.934 |  6.80e-05 | -1.94e-05 |  3.53e-05 |
    |  282 | 153 |  99 | 185 |    9.936 |   -0.047 |    0.053 |   9.960 |  4.78e-05 | -1.46e-05 |  6.65e-07 |
    |  283 | 154 | 100 | 186 |   10.335 |    1.657 |    1.048 |   9.785 |  4.73e-05 | -6.94e-06 |  1.31e-05 |
    |  284 | 145 | 146 | 174 |   11.035 |   -0.417 |   -2.926 |  12.338 |  5.37e-05 | -1.79e-05 | -3.66e-05 |
    |  285 |  81 |  31 | 187 |    9.983 |    0.002 |   -0.014 |   9.982 |  4.80e-05 | -1.44e-05 | -1.79e-07 |
    |  286 |  82 |  56 | 188 |   10.196 |   -0.237 |   -0.439 |  10.345 |  4.94e-05 | -1.58e-05 | -5.49e-06 |
    |  287 | 102 | 165 | 192 |   10.064 |    0.821 |    0.273 |   9.691 |  4.72e-05 | -1.06e-05 |  3.42e-06 |
    |  288 | 111 | 113 | 167 |   13.203 |   -1.280 |    2.369 |  14.481 |  6.53e-05 | -2.52e-05 |  2.96e-05 |
    |  289 |  67 | 135 | 178 |    8.205 |   -0.884 |   -1.508 |   9.065 |  4.07e-05 | -1.61e-05 | -1.89e-05 |
    |  290 | 163 | 123 | 183 |   10.084 |   -0.298 |   -0.063 |  10.237 |  4.89e-05 | -1.60e-05 | -7.82e-07 |
    |  291 |  42 |  43 | 169 |    5.740 |   -0.365 |    1.139 |   6.250 |  2.81e-05 | -1.00e-05 |  1.42e-05 |
    |  292 | 133 | 134 | 184 |   10.342 |   -0.319 |   -1.084 |  10.671 |  5.02e-05 | -1.64e-05 | -1.36e-05 |
    |  293 | 128 | 108 | 203 |   10.001 |   -0.314 |   -0.471 |  10.195 |  4.85e-05 | -1.59e-05 | -5.88e-06 |
    |  294 |  92 |  87 | 168 |   13.459 |   -1.733 |   -0.864 |  14.481 |  6.72e-05 | -2.77e-05 | -1.08e-05 |
    |  295 | 141 | 138 | 171 |   20.549 |    2.116 |   -0.054 |  19.577 |  9.57e-05 | -1.95e-05 | -6.78e-07 |
    |  296 | 139 |  79 | 172 |   20.462 |    3.516 |   -1.704 |  19.179 |  9.33e-05 | -1.26e-05 | -2.13e-05 |
    |  297 |   3 |  21 | 177 |   28.205 |    3.965 |    4.781 |  27.712 |  1.30e-04 | -2.16e-05 |  5.98e-05 |
    |  298 | 142 |  78 | 191 |    7.026 |   -0.879 |    2.285 |   8.484 |  3.50e-05 | -1.44e-05 |  2.86e-05 |
    |  299 | 107 |  97 | 176 |   10.170 |   -0.474 |    0.525 |  10.454 |  4.96e-05 | -1.69e-05 |  6.56e-06 |
    |  300 | 103 | 131 | 197 |   18.531 |    3.120 |    0.685 |  17.226 |  8.46e-05 | -1.17e-05 |  8.57e-06 |
    |  301 | 125 | 122 | 175 |   10.027 |   -0.665 |   -0.396 |  10.398 |  4.92e-05 | -1.77e-05 | -4.94e-06 |
    |  302 | 129 | 120 | 200 |    9.874 |   -0.634 |    0.532 |  10.247 |  4.84e-05 | -1.73e-05 |  6.65e-06 |
    |  303 |  40 |  41 | 181 |    9.167 |   -0.206 |    0.341 |   9.290 |  4.44e-05 | -1.42e-05 |  4.26e-06 |
    |  304 | 172 |  79 | 182 |   17.048 |    4.059 |   -1.201 |  15.564 |  7.61e-05 | -5.07e-06 | -1.50e-05 |
    |  305 | 136 |  70 | 203 |   10.250 |   -0.275 |   -0.523 |  10.429 |  4.97e-05 | -1.61e-05 | -6.54e-06 |
    |  306 | 149 |  99 | 170 |    9.986 |   -0.091 |    0.070 |  10.033 |  4.81e-05 | -1.48e-05 |  8.71e-07 |
    |  307 |  54 |  55 | 189 |    9.126 |    0.036 |   -0.123 |   9.111 |  4.38e-05 | -1.30e-05 | -1.54e-06 |
    |  308 |  96 |  94 | 190 |   11.219 |   -0.972 |   -0.325 |  11.749 |  5.53e-05 | -2.09e-05 | -4.07e-06 |
    |  309 | 111 | 167 | 202 |   12.806 |   -0.718 |    1.874 |  13.573 |  6.26e-05 | -2.19e-05 |  2.34e-05 |
    |  310 | 115 | 117 | 180 |   11.114 |   -0.819 |    1.055 |  11.689 |  5.46e-05 | -2.00e-05 |  1.32e-05 |
    |  311 | 126 | 142 | 191 |   10.682 |   -0.372 |    1.810 |  11.316 |  5.19e-05 | -1.72e-05 |  2.26e-05 |
    |  312 |  77 | 140 | 197 |   18.821 |    2.108 |    0.397 |  17.874 |  8.74e-05 | -1.70e-05 |  4.97e-06 |
    |  313 |  79 |  80 | 182 |   16.848 |    2.706 |   -0.768 |  15.728 |  7.71e-05 | -1.13e-05 | -9.60e-06 |
    |  314 | 159 | 150 | 173 |   10.047 |    1.935 |   -0.679 |   9.307 |  4.55e-05 | -5.19e-06 | -8.48e-06 |
    |  315 |  99 |  37 | 185 |    9.999 |   -0.017 |    0.010 |  10.008 |  4.81e-05 | -1.45e-05 |  1.20e-07 |
    |  316 | 100 |  62 | 186 |    9.714 |    1.452 |    1.158 |   9.295 |  4.46e-05 | -7.03e-06 |  1.45e-05 |
    |  317 | 157 |  81 | 187 |    9.941 |   -0.056 |   -0.054 |   9.970 |  4.79e-05 | -1.46e-05 | -6.76e-07 |
    |  318 | 159 |  82 | 188 |   10.392 |    1.645 |   -1.060 |   9.847 |  4.76e-05 | -7.08e-06 | -1.32e-05 |
    |  319 | 148 |  63 | 183 |   10.072 |   -0.124 |   -0.032 |  10.135 |  4.86e-05 | -1.51e-05 | -4.03e-07 |
    |  320 | 153 |  71 | 179 |    9.827 |   -0.202 |    0.203 |   9.936 |  4.75e-05 | -1.51e-05 |  2.54e-06 |
    |  321 |  64 | 147 | 192 |    9.972 |    1.953 |    0.246 |   9.163 |  4.51e-05 | -4.99e-06 |  3.08e-06 |
    |  322 | 182 |  80 | 199 |   16.350 |    1.688 |   -1.217 |  15.717 |  7.62e-05 | -1.55e-05 | -1.52e-05 |
    |  323 |  24 |   5 | 198 |    0.612 |   -1.050 |    0.039 |   1.458 |  4.46e-06 | -5.93e-06 |  4.90e-07 |
    |  324 | 165 |  64 | 192 |    9.746 |    1.058 |   -0.063 |   9.263 |  4.53e-05 | -8.97e-06 | -7.86e-07 |
    |  325 |  63 | 163 | 183 |   10.030 |   -0.254 |    0.005 |  10.160 |  4.86e-05 | -1.57e-05 |  6.10e-08 |
    |  326 |  80 |  89 | 199 |   15.022 |    0.537 |   -0.470 |  14.783 |  7.14e-05 | -1.91e-05 | -5.87e-06 |
    |  327 | 147 | 100 | 196 |    9.931 |    1.895 |    0.714 |   9.216 |  4.50e-05 | -5.22e-06 |  8.92e-06 |
    |  328 | 192 | 147 | 196 |    9.718 |    0.961 |    0.469 |   9.310 |  4.53e-05 | -9.39e-06 |  5.87e-06 |
    |  329 |  78 | 144 | 191 |   10.481 |   -0.299 |    3.123 |  11.931 |  5.08e-05 | -1.66e-05 |  3.90e-05 |
    |  330 |  32 | 157 | 187 |   10.000 |   -0.023 |   -0.007 |  10.012 |  4.81e-05 | -1.45e-05 | -8.48e-08 |
    |  331 |  57 | 159 | 188 |    9.712 |    1.427 |   -1.162 |   9.304 |  4.46e-05 | -7.15e-06 | -1.45e-05 |
    |  332 | 164 |  88 | 201 |    6.141 |   -0.359 |   -3.326 |   8.557 |  3.00e-05 | -1.06e-05 | -4.16e-05 |
    |  333 |  76 | 111 | 202 |   14.967 |   -0.121 |    2.548 |  15.663 |  7.21e-05 | -2.22e-05 |  3.19e-05 |
    |  334 |  20 | 143 | 193 |    0.235 |    0.348 |    1.718 |   2.991 |  6.26e-07 |  1.34e-06 |  2.15e-05 |
    |  335 |  45 | 151 | 194 |    0.642 |    0.047 |    1.462 |   2.608 |  3.02e-06 | -6.99e-07 |  1.83e-05 |
    |  336 | 124 | 179 | 200 |    9.893 |   -0.336 |    0.277 |  10.076 |  4.80e-05 | -1.59e-05 |  3.47e-06 |
    |  337 |  25 | 164 | 198 |    1.721 |   -0.390 |   -0.446 |   2.093 |  8.84e-06 | -4.36e-06 | -5.58e-06 |
    |  338 | 101 |  49 | 195 |    0.139 |    0.309 |   -1.784 |   3.101 |  2.25e-07 |  1.28e-06 | -2.23e-05 |
    |  339 | 198 | 164 | 201 |    6.503 |    2.960 |   -3.694 |   8.528 |  2.70e-05 |  4.85e-06 | -4.62e-05 |
    |  340 | 124 | 170 | 179 |   10.006 |   -0.263 |    0.186 |  10.145 |  4.85e-05 | -1.57e-05 |  2.33e-06 |
    |  341 | 179 |  71 | 200 |    9.958 |   -0.175 |    0.237 |  10.055 |  4.81e-05 | -1.52e-05 |  2.96e-06 |
    |  342 |  24 | 198 | 201 |   -0.833 |    0.805 |   -0.825 |   2.013 | -5.17e-06 |  5.07e-06 | -1.03e-05 |
    +------+-----+-----+-----+----------+----------+----------+---------+-----------+-----------+-----------+
