
    -------------------------------------------------------------
    -------------- Model input ----------------------------------
    -------------------------------------------------------------

    Model parameters:

    +-------------+----------+
    | Parameter   |    Value |
    |-------------+----------|
    | w [m]       |      0.3 |
    | h [m]       |      0.1 |
    | a [m]       |     0.05 |
    | b [m]       |    0.025 |
    | E [Pa]      | 2.08e+11 |
    | v [-]       |      0.3 |
    | t [-]       |     0.01 |
    +-------------+----------+

    Model boundary conditions:

    +----------+----------------+
    |   Marker |   Displacement |
    |----------+----------------|
    |       80 |              0 |
    +----------+----------------+

    Loads:

    +----------+-----------+------------+
    |   Marker |   qx[N/m] |   qy [N/m] |
    |----------+-----------+------------|
    |       50 |     1e+05 |          0 |
    +----------+-----------+------------+

    -------------------------------------------------------------
    -------------- Results --------------------------------------
    -------------------------------------------------------------

    Model info:

    +---------------------+------+
    | Max element size:   | 0.05 |
    | Dofs per node:      |    2 |
    | Element type:       |    2 |
    | Number of dofs:     |  406 |
    | Number of elements: |  342 |
    | Number of nodes:    |  203 |
    +---------------------+------+

    Summary of results:

    +----------------------+-----------+------+
    | Max displacement:    |  1.24e-05 | [m]  |
    | Min displacement:    | -6.64e-07 | [m]  |
    | Max reaction force:  |       317 | [N]  |
    | Min reaction force:  |  -1.4e+03 | [N]  |
    | Sum reaction forces: |    -1e+04 | [N]  |
    | Max vonMises:        |  1.85e+07 | [Pa] |
    | Min vonMises:        |   7.3e+05 | [Pa] |
    +----------------------+-----------+------+

    Results per node:

    +-----+-------+-------+-----------+------------+----------+-----------+-----------+-----------+
    |   N |   dof |   dof |   x_coord |    y_coord |      a_x |       a_y |       R_x |       R_y |
    |     |     x |     y |       [m] |        [m] |     [mm] |      [mm] |      [kN] |      [kN] |
    |-----+-------+-------+-----------+------------+----------+-----------+-----------+-----------|
    |   1 |     1 |     2 |         0 |          0 |        0 |         0 |    -0.939 |    -0.315 |
    |   2 |     3 |     4 |     0.125 |          0 |  0.00275 |  5.02e-05 | -5.68e-17 |  5.97e-16 |
    |   3 |     5 |     6 |     0.125 |      0.025 |  0.00425 |  0.000123 |  1.14e-16 | -9.09e-16 |
    |   4 |     7 |     8 |     0.175 |      0.025 |  0.00807 |  0.000145 | -2.56e-15 | -3.41e-16 |
    |   5 |     9 | 1e+01 |     0.175 |          0 |  0.00964 |   4.1e-05 |  2.33e-15 |  8.53e-16 |
    |   6 | 1e+01 | 1e+01 |       0.3 |          0 |   0.0124 |  0.000612 |  5.68e-16 |  9.09e-16 |
    |   7 | 1e+01 | 1e+01 |       0.3 |        0.1 |   0.0123 | -0.000358 | -3.64e-15 | -1.99e-16 |
    |   8 | 2e+01 | 2e+01 |     0.175 |        0.1 |  0.00954 | -2.27e-05 |  7.96e-16 |  7.67e-16 |
    |   9 | 2e+01 | 2e+01 |     0.175 |      0.075 |  0.00804 | -9.15e-05 | -4.15e-15 | -9.09e-16 |
    |  10 | 2e+01 | 2e+01 |     0.125 |      0.075 |  0.00426 | -0.000118 |  3.41e-16 | -6.25e-16 |
    |  11 | 2e+01 | 2e+01 |     0.125 |        0.1 |  0.00275 | -3.75e-05 |  5.68e-16 |         0 |
    |  12 | 2e+01 | 2e+01 |         0 |        0.1 |        0 |         0 |    -0.941 |     0.317 |
    |  13 | 2e+01 | 3e+01 |   0.01563 |          0 |  0.00057 |  0.000308 |  1.14e-16 | -2.27e-16 |
    |  14 | 3e+01 | 3e+01 |   0.03125 |          0 |  0.00104 |   0.00044 |  2.27e-16 |  1.14e-16 |
    |  15 | 3e+01 | 3e+01 |   0.04688 |          0 |  0.00151 |  0.000519 |  1.85e-16 | -3.41e-16 |
    |  16 | 3e+01 | 3e+01 |    0.0625 |          0 |  0.00195 |   0.00059 | -2.84e-16 |  5.68e-16 |
    |  17 | 3e+01 | 3e+01 |   0.07813 |          0 |  0.00235 |  0.000648 | -4.55e-16 |  1.14e-15 |
    |  18 | 4e+01 | 4e+01 |   0.09375 |          0 |  0.00264 |  0.000658 | -3.84e-16 |  6.82e-16 |
    |  19 | 4e+01 | 4e+01 |    0.1094 |          0 |  0.00277 |  0.000486 | -1.14e-15 |         0 |
    |  20 | 4e+01 | 4e+01 |     0.125 |     0.0125 |  0.00321 |  2.13e-05 |  1.86e-15 |  2.27e-16 |
    |  21 | 4e+01 | 4e+01 |    0.1375 |      0.025 |  0.00534 |  0.000308 | -2.87e-15 | -1.93e-15 |
    |  22 | 4e+01 | 4e+01 |      0.15 |      0.025 |  0.00618 |  0.000375 | -2.79e-15 | -1.14e-15 |
    |  23 | 4e+01 | 5e+01 |    0.1625 |      0.025 |  0.00704 |  0.000327 |  1.39e-15 |         0 |
    |  24 | 5e+01 | 5e+01 |     0.175 |     0.0125 |  0.00916 | -8.46e-06 | -1.93e-15 |  4.55e-16 |
    |  25 | 5e+01 | 5e+01 |    0.1906 |          0 |  0.00961 |  0.000522 | -1.14e-16 | -9.09e-16 |
    |  26 | 5e+01 | 5e+01 |    0.2062 |          0 |  0.00974 |    0.0007 | -9.38e-15 |  2.27e-16 |
    |  27 | 5e+01 | 5e+01 |    0.2219 |          0 |     0.01 |  0.000699 | -1.93e-15 | -1.36e-15 |
    |  28 | 6e+01 | 6e+01 |    0.2375 |          0 |   0.0105 |   0.00066 | -7.22e-15 |  4.09e-15 |
    |  29 | 6e+01 | 6e+01 |    0.2531 |          0 |   0.0109 |  0.000629 |  3.79e-15 |  1.42e-15 |
    |  30 | 6e+01 | 6e+01 |    0.2687 |          0 |   0.0114 |  0.000613 |  1.14e-15 |  4.55e-16 |
    |  31 | 6e+01 | 6e+01 |    0.2844 |          0 |   0.0119 |  0.000609 |  -1.7e-14 |  -7.5e-15 |
    |  32 | 6e+01 | 6e+01 |       0.3 |    0.01429 |   0.0124 |  0.000476 | -1.73e-14 | -2.96e-15 |
    |  33 | 6e+01 | 7e+01 |       0.3 |    0.02857 |   0.0124 |  0.000338 | -6.59e-15 |  2.73e-15 |
    |  34 | 7e+01 | 7e+01 |       0.3 |    0.04286 |   0.0124 |  0.000198 | -1.25e-14 | -2.07e-15 |
    |  35 | 7e+01 | 7e+01 |       0.3 |    0.05714 |   0.0124 |  5.61e-05 | -1.82e-14 | -2.39e-15 |
    |  36 | 7e+01 | 7e+01 |       0.3 |    0.07143 |   0.0124 | -8.42e-05 | -7.96e-15 |  2.79e-15 |
    |  37 | 7e+01 | 7e+01 |       0.3 |    0.08571 |   0.0123 | -0.000222 | -7.73e-15 | -2.29e-15 |
    |  38 | 8e+01 | 8e+01 |    0.2844 |        0.1 |   0.0118 | -0.000382 |  1.31e-14 | -5.91e-15 |
    |  39 | 8e+01 | 8e+01 |    0.2687 |        0.1 |   0.0113 | -0.000414 | -2.25e-15 |  6.31e-15 |
    |  40 | 8e+01 | 8e+01 |    0.2531 |        0.1 |   0.0108 | -0.000456 |  2.36e-15 |  2.05e-15 |
    |  41 | 8e+01 | 8e+01 |    0.2375 |        0.1 |   0.0104 | -0.000519 | -6.37e-15 |  3.18e-15 |
    |  42 | 8e+01 | 8e+01 |    0.2219 |        0.1 |  0.00996 | -0.000572 | -5.68e-15 | -2.05e-15 |
    |  43 | 8e+01 | 9e+01 |    0.2062 |        0.1 |  0.00966 | -0.000608 |   2.5e-15 |  1.08e-15 |
    |  44 | 9e+01 | 9e+01 |    0.1906 |        0.1 |  0.00953 | -0.000447 | -2.73e-15 |  3.64e-15 |
    |  45 | 9e+01 | 9e+01 |     0.175 |     0.0875 |  0.00909 |  3.19e-06 |  1.65e-14 |  5.68e-16 |
    |  46 | 9e+01 | 9e+01 |    0.1625 |      0.075 |  0.00701 | -0.000294 | -1.08e-14 | -3.18e-15 |
    |  47 | 9e+01 | 9e+01 |      0.15 |      0.075 |  0.00615 |  -0.00036 |  1.53e-15 |  3.64e-15 |
    |  48 | 1e+02 | 1e+02 |    0.1375 |      0.075 |  0.00529 | -0.000304 |  9.81e-16 |         0 |
    |  49 | 1e+02 | 1e+02 |     0.125 |     0.0875 |  0.00321 | -8.82e-06 |  1.13e-15 | -3.41e-16 |
    |  50 | 1e+02 | 1e+02 |    0.1094 |        0.1 |  0.00276 | -0.000483 | -2.27e-16 | -9.09e-16 |
    |  51 | 1e+02 | 1e+02 |   0.09375 |        0.1 |  0.00264 | -0.000664 | -1.36e-15 | -2.27e-16 |
    |  52 | 1e+02 | 1e+02 |   0.07812 |        0.1 |  0.00234 |  -0.00064 |  1.11e-15 |  7.39e-16 |
    |  53 | 1e+02 | 1e+02 |    0.0625 |        0.1 |  0.00195 | -0.000588 | -3.98e-16 |  7.96e-16 |
    |  54 | 1e+02 | 1e+02 |   0.04687 |        0.1 |   0.0015 | -0.000523 | -3.41e-16 |  1.14e-16 |
    |  55 | 1e+02 | 1e+02 |   0.03125 |        0.1 |  0.00105 | -0.000439 | -7.39e-16 |  1.71e-16 |
    |  56 | 1e+02 | 1e+02 |   0.01562 |        0.1 | 0.000571 | -0.000307 |  6.54e-16 | -1.14e-16 |
    |  57 | 1e+02 | 1e+02 |         0 |    0.08571 |        0 |         0 |      -1.4 |     0.178 |
    |  58 | 1e+02 | 1e+02 |         0 |    0.07143 |        0 |         0 |     -1.34 |     0.103 |
    |  59 | 1e+02 | 1e+02 |         0 |    0.05714 |        0 |         0 |     -1.33 |    0.0383 |
    |  60 | 1e+02 | 1e+02 |         0 |    0.04286 |        0 |         0 |     -1.33 |   -0.0394 |
    |  61 | 1e+02 | 1e+02 |         0 |    0.02857 |        0 |         0 |     -1.34 |    -0.104 |
    |  62 | 1e+02 | 1e+02 |         0 |    0.01429 |        0 |         0 |      -1.4 |    -0.178 |
    |  63 | 1e+02 | 1e+02 |    0.2877 |    0.04985 |    0.012 |  0.000118 |  3.54e-14 |  4.77e-15 |
    |  64 | 1e+02 | 1e+02 |   0.01237 |       0.05 |  0.00035 |  2.15e-06 |  2.84e-17 |  1.28e-16 |
    |  65 | 1e+02 | 1e+02 |   0.07031 |    0.01353 |  0.00217 |  0.000504 |  7.96e-15 | -9.09e-16 |
    |  66 | 1e+02 | 1e+02 |    0.2297 |    0.08675 |   0.0101 | -0.000434 |  4.63e-14 | -9.09e-16 |
    |  67 | 1e+02 | 1e+02 |   0.08583 |    0.08755 |  0.00259 | -0.000565 | -2.05e-15 |  1.82e-15 |
    |  68 | 1e+02 | 1e+02 |    0.2137 |    0.01415 |  0.00975 |  0.000602 |  1.27e-14 |  5.63e-15 |
    |  69 | 1e+02 | 1e+02 |    0.2468 |    0.01548 |   0.0107 |  0.000494 | -1.82e-14 |  4.77e-15 |
    |  70 | 1e+02 | 1e+02 |   0.05371 |    0.08661 |  0.00167 | -0.000432 | -6.37e-15 |  1.14e-16 |
    |  71 | 1e+02 | 1e+02 |    0.2591 |     0.0872 |    0.011 | -0.000317 |   2.1e-14 | -5.68e-15 |
    |  72 | 1e+02 | 1e+02 |   0.04079 |    0.01541 |  0.00127 |  0.000353 |  1.19e-15 | -1.25e-15 |
    |  73 | 1e+02 | 1e+02 |    0.1313 |    0.06411 |  0.00499 | -6.19e-05 |  8.53e-17 |  6.82e-16 |
    |  74 | 1e+02 | 1e+02 |    0.1168 |    0.06668 |  0.00421 | -0.000195 |  1.14e-16 | -1.14e-15 |
    |  75 | 1e+02 | 2e+02 |    0.1687 |    0.06413 |  0.00732 | -4.44e-05 |  9.49e-15 | -6.08e-15 |
    |  76 | 2e+02 | 2e+02 |    0.1814 |     0.0636 |  0.00796 |  -0.00011 | -1.85e-14 | -8.73e-15 |
    |  77 | 2e+02 | 2e+02 |    0.1429 |    0.03593 |  0.00572 |  0.000168 | -4.55e-15 |  1.82e-15 |
    |  78 | 2e+02 | 2e+02 |    0.1024 |    0.01271 |  0.00299 |  0.000554 | -1.51e-14 |  2.27e-16 |
    |  79 | 2e+02 | 2e+02 |    0.1687 |    0.03583 |  0.00734 |  8.53e-05 |  1.19e-15 | -3.24e-15 |
    |  80 | 2e+02 | 2e+02 |    0.1812 |    0.03583 |  0.00798 |  0.000171 | -1.14e-14 | -3.04e-15 |
    |  81 | 2e+02 | 2e+02 |    0.2766 |    0.01353 |   0.0117 |  0.000479 |  2.23e-14 |  9.09e-16 |
    |  82 | 2e+02 | 2e+02 |   0.02417 |    0.08727 | 0.000748 | -0.000274 | -1.71e-15 | -2.27e-16 |
    |  83 | 2e+02 | 2e+02 |    0.1247 |    0.05357 |  0.00478 | -2.61e-05 | -7.96e-15 | -1.14e-15 |
    |  84 | 2e+02 | 2e+02 |    0.1116 |    0.05347 |  0.00413 | -5.39e-05 |  9.38e-15 |  3.84e-16 |
    |  85 | 2e+02 | 2e+02 |     0.199 |    0.08723 |  0.00934 | -0.000519 |  3.32e-14 | -3.64e-15 |
    |  86 | 2e+02 | 2e+02 |    0.1055 |     0.0646 |  0.00371 | -0.000245 | -8.04e-15 | -4.26e-17 |
    |  87 | 2e+02 | 2e+02 |   0.09829 |    0.05259 |   0.0035 | -4.93e-05 | -4.23e-15 |  1.82e-15 |
    |  88 | 2e+02 | 2e+02 |    0.1883 |    0.02507 |  0.00866 |  0.000384 |   8.3e-15 | -4.55e-16 |
    |  89 | 2e+02 | 2e+02 |    0.1943 |    0.03612 |   0.0086 |  0.000274 |  8.07e-15 | -1.14e-15 |
    |  90 | 2e+02 | 2e+02 |    0.1063 |    0.04111 |  0.00383 |  0.000148 |  5.46e-15 | -1.38e-15 |
    |  91 | 2e+02 | 2e+02 |   0.09246 |    0.03773 |  0.00317 |  0.000234 |  7.62e-15 |  2.27e-16 |
    |  92 | 2e+02 | 2e+02 |   0.08425 |    0.05214 |  0.00287 | -3.26e-05 |  2.03e-15 |  7.39e-16 |
    |  93 | 2e+02 | 2e+02 |   0.07699 |    0.03994 |  0.00255 |  0.000169 | -1.67e-15 |         0 |
    |  94 | 2e+02 | 2e+02 |   0.06941 |    0.05235 |  0.00227 | -3.83e-05 |   2.3e-15 | -4.55e-16 |
    |  95 | 2e+02 | 2e+02 |   0.06193 |    0.04024 |  0.00198 |  0.000138 | -3.98e-16 |  1.36e-15 |
    |  96 | 2e+02 | 2e+02 |   0.05437 |    0.05248 |  0.00172 | -3.22e-05 |  7.11e-17 |  1.25e-15 |
    |  97 | 2e+02 | 2e+02 |   0.04741 |    0.04051 |  0.00147 |   0.00011 |  3.98e-15 |  5.68e-17 |
    |  98 | 2e+02 | 2e+02 |   0.03961 |    0.05343 |  0.00121 | -3.57e-05 | -8.53e-16 |  7.25e-16 |
    |  99 | 2e+02 | 2e+02 |    0.2882 |    0.07836 |    0.012 | -0.000167 |  2.51e-14 | -2.73e-15 |
    | 100 | 2e+02 | 2e+02 |   0.01134 |    0.02172 | 0.000325 |  9.34e-05 |         0 |  4.26e-17 |
    | 101 | 2e+02 | 2e+02 |    0.1146 |    0.08056 |  0.00355 | -0.000379 | -1.15e-14 | -4.55e-16 |
    | 102 | 2e+02 | 2e+02 |   0.03257 |    0.03924 | 0.000975 |  9.44e-05 | -1.39e-15 |  5.26e-16 |
    | 103 | 2e+02 | 2e+02 |    0.1385 |    0.05317 |  0.00549 | -1.36e-05 |  -8.7e-15 |  1.14e-16 |
    | 104 | 2e+02 | 2e+02 |   0.07706 |    0.06581 |  0.00252 | -0.000264 |  2.69e-15 | -1.02e-15 |
    | 105 | 2e+02 | 2e+02 |     0.175 |    0.05316 |  0.00753 |  2.88e-06 |  2.07e-15 |  6.82e-16 |
    | 106 | 2e+02 | 2e+02 |    0.1604 |    0.05468 |  0.00678 | -2.24e-05 |  1.18e-14 | -1.42e-15 |
    | 107 | 2e+02 | 2e+02 |   0.05489 |    0.02645 |  0.00171 |  0.000298 |  2.39e-15 | -2.27e-16 |
    | 108 | 2e+02 | 2e+02 |   0.04654 |    0.06498 |  0.00144 | -0.000171 |  2.27e-15 |  2.27e-16 |
    | 109 | 2e+02 | 2e+02 |   0.03371 |    0.06527 |  0.00101 | -0.000138 |  1.56e-15 | -6.82e-16 |
    | 110 | 2e+02 | 2e+02 |    0.1879 |    0.05551 |  0.00819 | -4.02e-05 |  3.18e-15 |  2.37e-15 |
    | 111 | 2e+02 | 2e+02 |    0.1945 |    0.06389 |   0.0086 | -0.000194 |  1.41e-14 |  1.14e-16 |
    | 112 | 2e+02 | 2e+02 |    0.1995 |      0.051 |  0.00872 |  2.58e-05 |  5.97e-16 |  -2.9e-15 |
    | 113 | 2e+02 | 2e+02 |     0.208 |    0.06428 |  0.00919 | -0.000213 |  1.53e-15 |  3.07e-15 |
    | 114 | 2e+02 | 2e+02 |    0.2153 |    0.05228 |  0.00943 |  9.19e-06 | -5.94e-15 | -2.05e-15 |
    | 115 | 2e+02 | 2e+02 |    0.2227 |    0.06461 |  0.00977 | -0.000182 | -5.88e-15 |  6.37e-15 |
    | 116 | 2e+02 | 2e+02 |    0.2303 |    0.05267 |     0.01 |  2.41e-05 |   1.5e-14 | -2.44e-15 |
    | 117 | 2e+02 | 2e+02 |    0.2377 |    0.06492 |   0.0103 | -0.000138 | -1.93e-15 |  3.07e-15 |
    | 118 | 2e+02 | 2e+02 |    0.2453 |    0.05286 |   0.0106 |  3.95e-05 |   3.1e-15 | -7.96e-16 |
    | 119 | 2e+02 | 2e+02 |    0.2243 |    0.03784 |  0.00984 |  0.000258 | -7.46e-15 | -8.19e-15 |
    | 120 | 2e+02 | 2e+02 |    0.2523 |    0.06527 |   0.0108 | -0.000102 |  8.61e-15 |  1.14e-16 |
    | 121 | 2e+02 | 2e+02 |    0.2601 |    0.05299 |   0.0111 |  5.68e-05 | -5.54e-15 |     3e-15 |
    | 122 | 2e+02 | 2e+02 |    0.2535 |    0.04043 |   0.0109 |  0.000202 | -3.87e-14 | -4.32e-15 |
    | 123 | 2e+02 | 2e+02 |    0.2672 |    0.04089 |   0.0113 |  0.000199 | -4.09e-15 | -6.03e-15 |
    | 124 | 2e+02 | 2e+02 |    0.2651 |    0.06617 |   0.0112 | -8.37e-05 | -5.68e-14 |  8.81e-15 |
    | 125 | 2e+02 | 2e+02 |     0.261 |    0.02636 |   0.0111 |  0.000359 |  3.71e-14 |  5.51e-15 |
    | 126 | 3e+02 | 3e+02 |   0.08241 |    0.02629 |  0.00265 |    0.0004 | -1.26e-14 |  2.05e-15 |
    | 127 | 3e+02 | 3e+02 |    0.2023 |    0.02609 |  0.00915 |  0.000463 | -1.18e-14 | -2.73e-15 |
    | 128 | 3e+02 | 3e+02 |   0.03936 |    0.07954 |  0.00121 | -0.000297 |  3.64e-15 |  2.96e-15 |
    | 129 | 3e+02 | 3e+02 |    0.2449 |    0.07858 |   0.0106 | -0.000281 | -1.03e-14 |  -3.3e-15 |
    | 130 | 3e+02 | 3e+02 |     0.215 |    0.07764 |  0.00961 | -0.000402 |  3.44e-14 | -5.46e-15 |
    | 131 | 3e+02 | 3e+02 |    0.1325 |    0.04324 |  0.00516 |  2.51e-05 |  1.53e-15 | -4.72e-15 |
    | 132 | 3e+02 | 3e+02 |    0.2083 |    0.03943 |  0.00918 |  0.000241 |  9.27e-15 |  3.98e-15 |
    | 133 | 3e+02 | 3e+02 |    0.2295 |    0.01341 |   0.0102 |  0.000559 |  3.64e-15 | -1.36e-14 |
    | 134 | 3e+02 | 3e+02 |    0.2373 |    0.02663 |   0.0104 |  0.000396 |  5.36e-15 | -5.46e-15 |
    | 135 | 3e+02 | 3e+02 |   0.07017 |    0.08755 |  0.00216 | -0.000507 |  2.16e-15 |         0 |
    | 136 | 3e+02 | 3e+02 |   0.06415 |    0.07468 |  0.00202 | -0.000345 | -9.09e-16 |  1.71e-15 |
    | 137 | 3e+02 | 3e+02 |    0.1202 |     0.0424 |  0.00453 |   7.2e-05 | -5.57e-15 | -5.12e-16 |
    | 138 | 3e+02 | 3e+02 |    0.1439 |    0.06466 |  0.00577 | -0.000165 |  1.63e-14 |  5.34e-15 |
    | 139 | 3e+02 | 3e+02 |    0.1561 |    0.03531 |  0.00656 |  0.000183 | -9.83e-15 | -2.27e-15 |
    | 140 | 3e+02 | 3e+02 |      0.15 |    0.04665 |  0.00617 |  4.78e-05 |  3.73e-14 |  4.21e-15 |
    | 141 | 3e+02 | 3e+02 |    0.1559 |      0.065 |  0.00653 | -0.000166 |  1.38e-14 |  6.31e-15 |
    | 142 | 3e+02 | 3e+02 |   0.08681 |    0.01233 |  0.00262 |   0.00057 |  5.46e-15 | -1.36e-15 |
    | 143 | 3e+02 | 3e+02 |    0.1143 |     0.0194 |  0.00354 |  0.000396 | -7.62e-15 |  2.73e-15 |
    | 144 | 3e+02 | 3e+02 |     0.104 |    0.02715 |  0.00346 |  0.000391 | -2.16e-15 |  1.59e-15 |
    | 145 | 3e+02 | 3e+02 |    0.1025 |    0.08703 |    0.003 | -0.000555 |  3.64e-15 |  3.18e-15 |
    | 146 | 3e+02 | 3e+02 |   0.09218 |    0.07439 |  0.00298 | -0.000434 |  2.91e-15 | -5.23e-15 |
    | 147 | 3e+02 | 3e+02 |   0.01198 |    0.03573 | 0.000338 |  4.89e-05 |  6.25e-16 | -1.24e-17 |
    | 148 | 3e+02 | 3e+02 |    0.2884 |    0.03563 |    0.012 |  0.000262 |  -1.3e-14 | -5.23e-15 |
    | 149 | 3e+02 | 3e+02 |    0.2881 |    0.06366 |    0.012 | -2.18e-05 | -1.27e-14 | -2.27e-16 |
    | 150 | 3e+02 | 3e+02 |   0.01187 |    0.06385 | 0.000334 | -4.72e-05 |  5.97e-16 |  8.53e-17 |
    | 151 | 3e+02 | 3e+02 |     0.187 |    0.08126 |  0.00884 | -0.000382 | -3.52e-15 | -2.73e-15 |
    | 152 | 3e+02 | 3e+02 |    0.2149 |    0.02838 |  0.00958 |  0.000411 | -2.32e-14 |  1.48e-15 |
    | 153 | 3e+02 | 3e+02 |    0.2759 |    0.08684 |   0.0116 | -0.000271 |  6.75e-14 |  4.21e-15 |
    | 154 | 3e+02 | 3e+02 |   0.02345 |    0.01409 |  0.00072 |  0.000256 | -6.82e-16 |  5.68e-16 |
    | 155 | 3e+02 | 3e+02 |   0.03203 |    0.02531 | 0.000969 |  0.000213 |  4.23e-15 |  1.05e-15 |
    | 156 | 3e+02 | 3e+02 |   0.06946 |     0.0285 |  0.00221 |  0.000316 | -2.76e-15 |         0 |
    | 157 | 3e+02 | 3e+02 |    0.2883 |    0.02173 |    0.012 |  0.000399 | -2.33e-14 | -1.59e-15 |
    | 158 | 3e+02 | 3e+02 |    0.2767 |    0.03017 |   0.0117 |  0.000313 | -1.23e-14 | -1.82e-15 |
    | 159 | 3e+02 | 3e+02 |   0.01133 |     0.0783 | 0.000324 | -9.39e-05 | -6.25e-16 |         0 |
    | 160 | 3e+02 | 3e+02 |   0.05507 |    0.01108 |  0.00171 |  0.000455 | -1.16e-14 | -1.36e-15 |
    | 161 | 3e+02 | 3e+02 |    0.2613 |    0.01107 |   0.0112 |  0.000512 |  6.37e-15 | -2.27e-15 |
    | 162 | 3e+02 | 3e+02 |    0.2393 |    0.04013 |   0.0104 |  0.000209 |  3.03e-14 | -9.66e-16 |
    | 163 | 3e+02 | 3e+02 |    0.2751 |    0.05541 |   0.0116 |  4.72e-05 |  2.48e-14 | -1.42e-15 |
    | 164 | 3e+02 | 3e+02 |    0.1941 |    0.01304 |  0.00929 |   0.00056 | -3.13e-14 |  4.55e-15 |
    | 165 | 3e+02 | 3e+02 |   0.02488 |    0.05492 | 0.000728 | -3.56e-05 | -3.41e-16 | -7.11e-16 |
    | 166 | 3e+02 | 3e+02 |    0.1168 |    0.03126 |  0.00415 |  0.000222 |  8.01e-15 |  2.27e-15 |
    | 167 | 3e+02 | 3e+02 |    0.1992 |    0.07441 |  0.00902 | -0.000375 |  7.84e-15 | -5.34e-15 |
    | 168 | 3e+02 | 3e+02 |   0.09146 |    0.06191 |  0.00313 | -0.000218 |  6.54e-15 |  3.07e-15 |
    | 169 | 3e+02 | 3e+02 |    0.2141 |    0.09035 |  0.00974 | -0.000525 | -1.43e-14 |  1.05e-14 |
    | 170 | 3e+02 | 3e+02 |    0.2782 |    0.07143 |   0.0117 | -0.000114 |  1.75e-14 |  5.43e-15 |
    | 171 | 3e+02 | 3e+02 |    0.1498 |    0.05675 |  0.00615 | -6.04e-05 | -1.04e-14 |  4.97e-15 |
    | 172 | 3e+02 | 3e+02 |    0.1642 |    0.04483 |    0.007 |  4.31e-05 | -2.11e-14 |  3.81e-15 |
    | 173 | 3e+02 | 3e+02 |   0.02211 |    0.07165 | 0.000648 | -0.000137 | -1.68e-15 | -2.27e-16 |
    | 174 | 3e+02 | 3e+02 |    0.1047 |    0.07562 |  0.00339 | -0.000413 |   1.1e-14 |  1.82e-15 |
    | 175 | 3e+02 | 4e+02 |    0.2482 |    0.02933 |   0.0107 |  0.000339 |  3.41e-16 |  7.73e-15 |
    | 176 | 4e+02 | 4e+02 |    0.0421 |     0.0293 |  0.00129 |  0.000217 | -3.61e-15 |  2.27e-16 |
    | 177 | 4e+02 | 4e+02 |    0.1297 |    0.03343 |  0.00487 |  7.16e-05 | -1.81e-14 | -1.19e-15 |
    | 178 | 4e+02 | 4e+02 |   0.07788 |      0.078 |  0.00245 | -0.000434 |  4.55e-16 |  3.41e-16 |
    | 179 | 4e+02 | 4e+02 |    0.2672 |    0.07752 |   0.0113 | -0.000199 | -4.36e-14 | -6.08e-15 |
    | 180 | 4e+02 | 4e+02 |      0.23 |     0.0745 |   0.0101 |  -0.00029 | -2.09e-14 | -3.41e-16 |
    | 181 | 4e+02 | 4e+02 |    0.2453 |    0.09092 |   0.0106 | -0.000401 | -5.91e-15 | -6.82e-15 |
    | 182 | 4e+02 | 4e+02 |    0.1754 |     0.0426 |  0.00759 |  7.96e-05 | -8.78e-15 | -2.73e-15 |
    | 183 | 4e+02 | 4e+02 |    0.2789 |    0.04286 |   0.0117 |  0.000182 | -8.36e-15 |   7.5e-15 |
    | 184 | 4e+02 | 4e+02 |    0.2252 |    0.02428 |  0.00998 |  0.000449 |  1.51e-14 | -9.09e-16 |
    | 185 | 4e+02 | 4e+02 |    0.2894 |     0.0898 |    0.012 | -0.000276 |  2.35e-14 |     1e-14 |
    | 186 | 4e+02 | 4e+02 |   0.01047 |    0.01015 | 0.000318 |  0.000138 | -3.98e-16 |         0 |
    | 187 | 4e+02 | 4e+02 |    0.2899 |    0.00991 |   0.0121 |  0.000514 |  1.93e-15 |  3.18e-15 |
    | 188 | 4e+02 | 4e+02 |   0.01057 |    0.08984 | 0.000322 |  -0.00014 | -5.12e-16 |  4.26e-17 |
    | 189 | 4e+02 | 4e+02 |   0.03906 |    0.09126 |  0.00124 | -0.000406 |  1.71e-15 | -3.87e-15 |
    | 190 | 4e+02 | 4e+02 |   0.06161 |     0.0626 |  0.00196 | -0.000177 | -1.14e-16 | -9.09e-16 |
    | 191 | 4e+02 | 4e+02 |    0.0936 |    0.02324 |  0.00299 |   0.00046 |  1.24e-14 | -1.36e-15 |
    | 192 | 4e+02 | 4e+02 |   0.02049 |    0.04169 | 0.000594 |  4.64e-05 |  1.46e-15 |  2.52e-16 |
    | 193 | 4e+02 | 4e+02 |    0.1152 |   0.008922 |  0.00303 |  0.000355 |   5.4e-15 |         0 |
    | 194 | 4e+02 | 4e+02 |    0.1853 |     0.0912 |  0.00928 | -0.000332 | -4.56e-14 |  1.36e-15 |
    | 195 | 4e+02 | 4e+02 |    0.1153 |    0.09102 |  0.00303 | -0.000345 |  6.03e-15 | -2.05e-15 |
    | 196 | 4e+02 | 4e+02 |   0.02066 |    0.02857 | 0.000602 |  0.000129 | -1.28e-15 | -3.98e-16 |
    | 197 | 4e+02 | 4e+02 |     0.141 |    0.04464 |  0.00564 |  6.89e-05 | -4.29e-15 | -2.84e-15 |
    | 198 | 4e+02 | 4e+02 |    0.1835 |   0.007702 |  0.00937 |  0.000341 |  1.03e-14 | -4.09e-15 |
    | 199 | 4e+02 | 4e+02 |    0.1861 |    0.04503 |   0.0081 |  9.38e-05 | -1.96e-14 | -1.99e-15 |
    | 200 | 4e+02 | 4e+02 |    0.2576 |    0.07523 |    0.011 | -0.000199 |  2.39e-14 | -1.05e-14 |
    | 201 | 4e+02 | 4e+02 |    0.1834 |    0.01644 |  0.00893 |  0.000368 | -1.14e-14 |  4.55e-15 |
    | 202 | 4e+02 | 4e+02 |    0.1875 |    0.07163 |  0.00847 | -0.000265 |   1.9e-14 |  2.27e-15 |
    | 203 | 4e+02 | 4e+02 |    0.0525 |     0.0751 |  0.00163 | -0.000303 |  1.82e-15 |  4.55e-16 |
    +-----+-------+-------+-----------+------------+----------+-----------+-----------+-----------+

    Results per element:

    +------+-----+-----+-----+----------+----------+----------+---------+-----------+-----------+-----------+
    |   El |   N |   N |   N |   sig_xx |   sig_yy |   tau_xy |   vMise |    eps_xx |    eps_yy |    eps_xy |
    |   Nb |   1 |   2 |   3 |    [MPa] |    [MPa] |    [MPa] |   [MPa] |       [-] |       [-] |       [-] |
    |------+-----+-----+-----+----------+----------+----------+---------+-----------+-----------+-----------|
    |    1 | 125 |  81 | 158 |    6.660 |   -0.086 |   -0.101 |   6.706 |  3.21e-05 | -1.00e-05 | -1.26e-06 |
    |    2 |  26 |  68 | 164 |    4.837 |   -0.267 |   -0.771 |   5.152 |  2.36e-05 | -8.26e-06 | -9.64e-06 |
    |    3 |  68 | 127 | 164 |    4.961 |   -0.413 |   -1.915 |   6.151 |  2.44e-05 | -9.14e-06 | -2.39e-05 |
    |    4 |  74 | 101 | 174 |    7.591 |   -0.169 |   -2.545 |   8.852 |  3.67e-05 | -1.18e-05 | -3.18e-05 |
    |    5 |  81 | 125 | 161 |    6.596 |   -0.110 |   -0.129 |   6.655 |  3.19e-05 | -1.00e-05 | -1.61e-06 |
    |    6 | 144 |  91 | 191 |    7.848 |   -0.903 |    1.127 |   8.562 |  3.90e-05 | -1.57e-05 |  1.41e-05 |
    |    7 | 107 |  65 | 156 |    6.825 |   -0.532 |    0.630 |   7.189 |  3.36e-05 | -1.24e-05 |  7.88e-06 |
    |    8 |  65 | 107 | 160 |    6.090 |   -0.285 |    0.410 |   6.278 |  2.97e-05 | -1.02e-05 |  5.12e-06 |
    |    9 |  69 | 125 | 175 |    6.693 |   -0.300 |   -0.309 |   6.869 |  3.26e-05 | -1.11e-05 | -3.86e-06 |
    |   10 |  72 | 107 | 176 |    6.765 |   -0.086 |    0.225 |   6.820 |  3.26e-05 | -1.02e-05 |  2.82e-06 |
    |   11 | 128 |  82 | 173 |    6.650 |    0.329 |   -0.268 |   6.508 |  3.15e-05 | -8.01e-06 | -3.35e-06 |
    |   12 | 125 |  69 | 161 |    6.452 |   -0.157 |   -0.230 |   6.544 |  3.12e-05 | -1.01e-05 | -2.88e-06 |
    |   13 |  74 |  10 | 101 |    9.963 |    0.890 |   -1.587 |   9.937 |  4.66e-05 | -1.01e-05 | -1.98e-05 |
    |   14 | 107 |  72 | 160 |    6.489 |   -0.168 |    0.349 |   6.602 |  3.14e-05 | -1.02e-05 |  4.36e-06 |
    |   15 | 137 | 166 | 177 |   11.434 |    1.239 |    0.643 |  10.925 |  5.32e-05 | -1.05e-05 |  8.04e-06 |
    |   16 | 166 |   3 | 177 |   11.090 |    3.433 |    2.786 |  10.954 |  4.84e-05 |  5.07e-07 |  3.48e-05 |
    |   17 |  89 | 112 | 199 |   10.318 |   -0.576 |   -0.541 |  10.659 |  5.04e-05 | -1.76e-05 | -6.76e-06 |
    |   18 | 126 |  65 | 142 |    5.689 |   -0.616 |    1.123 |   6.326 |  2.82e-05 | -1.12e-05 |  1.40e-05 |
    |   19 |  86 |  74 | 174 |   10.060 |   -0.041 |   -1.447 |  10.387 |  4.84e-05 | -1.47e-05 | -1.81e-05 |
    |   20 |  91 | 126 | 191 |    6.953 |   -1.139 |    1.258 |   7.893 |  3.51e-05 | -1.55e-05 |  1.57e-05 |
    |   21 | 112 |  89 | 132 |    8.687 |   -0.986 |   -0.424 |   9.249 |  4.32e-05 | -1.73e-05 | -5.30e-06 |
    |   22 |  65 | 126 | 156 |    7.036 |   -0.452 |    0.747 |   7.386 |  3.45e-05 | -1.23e-05 |  9.34e-06 |
    |   23 | 119 | 134 | 162 |    7.475 |   -0.593 |   -0.464 |   7.830 |  3.68e-05 | -1.36e-05 | -5.80e-06 |
    |   24 | 109 | 128 | 173 |    6.703 |    0.119 |   -0.326 |   6.669 |  3.21e-05 | -9.10e-06 | -4.07e-06 |
    |   25 | 134 | 119 | 184 |    6.736 |   -0.936 |   -0.788 |   7.377 |  3.37e-05 | -1.42e-05 | -9.85e-06 |
    |   26 |  90 |  91 | 144 |    8.735 |   -0.924 |    1.400 |   9.545 |  4.33e-05 | -1.70e-05 |  1.75e-05 |
    |   27 | 130 |  85 | 167 |    6.708 |   -0.330 |    2.087 |   7.771 |  3.27e-05 | -1.13e-05 |  2.61e-05 |
    |   28 | 163 | 149 | 170 |    6.682 |   -0.144 |    0.043 |   6.755 |  3.23e-05 | -1.03e-05 |  5.40e-07 |
    |   29 |  89 | 127 | 132 |    9.281 |   -0.839 |   -1.320 |   9.993 |  4.58e-05 | -1.74e-05 | -1.65e-05 |
    |   30 | 146 | 104 | 168 |    7.638 |   -1.290 |   -1.245 |   8.632 |  3.86e-05 | -1.72e-05 | -1.56e-05 |
    |   31 |  85 | 130 | 169 |    4.925 |   -0.509 |    1.064 |   5.515 |  2.44e-05 | -9.55e-06 |  1.33e-05 |
    |   32 | 105 | 106 | 172 |   11.334 |    2.105 |   -0.085 |  10.443 |  5.15e-05 | -6.23e-06 | -1.07e-06 |
    |   33 | 104 | 146 | 178 |    7.031 |   -0.738 |   -0.882 |   7.583 |  3.49e-05 | -1.37e-05 | -1.10e-05 |
    |   34 | 105 | 172 | 182 |   11.518 |    1.958 |   -0.139 |  10.677 |  5.25e-05 | -7.20e-06 | -1.73e-06 |
    |   35 | 150 | 165 | 173 |    6.514 |    0.569 |   -0.274 |   6.267 |  3.05e-05 | -6.66e-06 | -3.42e-06 |
    |   36 | 132 | 127 | 152 |    7.226 |   -1.178 |   -1.212 |   8.156 |  3.64e-05 | -1.61e-05 | -1.52e-05 |
    |   37 | 105 | 182 | 199 |   10.596 |    1.689 |   -0.061 |   9.861 |  4.85e-05 | -7.16e-06 | -7.67e-07 |
    |   38 | 112 | 110 | 199 |    9.625 |    0.205 |    0.086 |   9.526 |  4.60e-05 | -1.29e-05 |  1.07e-06 |
    |   39 | 124 | 163 | 170 |    6.710 |   -0.160 |    0.090 |   6.794 |  3.25e-05 | -1.04e-05 |  1.12e-06 |
    |   40 | 131 | 137 | 177 |   11.209 |    2.581 |    0.894 |  10.284 |  5.02e-05 | -3.76e-06 |  1.12e-05 |
    |   41 | 110 | 105 | 199 |   10.767 |    0.608 |   -0.119 |  10.478 |  5.09e-05 | -1.26e-05 | -1.49e-06 |
    |   42 | 127 |  68 | 152 |    7.456 |   -0.533 |   -1.329 |   8.071 |  3.66e-05 | -1.33e-05 | -1.66e-05 |
    |   43 |  25 |  26 | 164 |    1.907 |    0.558 |   -1.212 |   2.701 |  8.37e-06 | -6.71e-08 | -1.52e-05 |
    |   44 |  63 | 149 | 163 |    6.717 |   -0.092 |    0.021 |   6.764 |  3.24e-05 | -1.01e-05 |  2.65e-07 |
    |   45 | 165 | 109 | 173 |    6.799 |    0.651 |   -0.264 |   6.514 |  3.17e-05 | -6.68e-06 | -3.30e-06 |
    |   46 | 167 | 151 | 202 |    7.652 |   -0.289 |    2.736 |   9.127 |  3.72e-05 | -1.24e-05 |  3.42e-05 |
    |   47 |  18 |  19 |  78 |    1.811 |    0.393 |    0.880 |   2.246 |  8.14e-06 | -7.21e-07 |  1.10e-05 |
    |   48 | 150 |  64 | 165 |    6.675 |    1.249 |   -0.131 |   6.151 |  3.03e-05 | -3.63e-06 | -1.63e-06 |
    |   49 | 135 |  70 | 136 |    6.113 |   -0.399 |   -0.569 |   6.398 |  3.00e-05 | -1.07e-05 | -7.11e-06 |
    |   50 | 133 |  69 | 134 |    6.253 |   -0.389 |   -0.599 |   6.539 |  3.06e-05 | -1.09e-05 | -7.49e-06 |
    |   51 |  53 |  70 | 135 |    6.175 |   -0.022 |   -0.235 |   6.200 |  2.97e-05 | -9.01e-06 | -2.94e-06 |
    |   52 |  28 |  69 | 133 |    6.267 |   -0.027 |   -0.310 |   6.303 |  3.02e-05 | -9.17e-06 | -3.87e-06 |
    |   53 |  65 |  17 | 142 |    5.727 |   -0.078 |    0.487 |   5.828 |  2.76e-05 | -8.64e-06 |  6.09e-06 |
    |   54 |  85 | 151 | 167 |    5.789 |   -0.624 |    1.577 |   6.706 |  2.87e-05 | -1.13e-05 |  1.97e-05 |
    |   55 |  43 |  44 |  85 |    1.898 |    0.339 |    0.828 |   2.265 |  8.64e-06 | -1.11e-06 |  1.03e-05 |
    |   56 |  82 | 128 | 189 |    6.647 |    0.026 |   -0.260 |   6.650 |  3.19e-05 | -9.46e-06 | -3.25e-06 |
    |   57 | 129 |  71 | 181 |    6.473 |   -0.121 |    0.316 |   6.557 |  3.13e-05 | -9.92e-06 |  3.94e-06 |
    |   58 |  67 |  52 | 135 |    5.637 |   -0.033 |   -0.513 |   5.723 |  2.71e-05 | -8.29e-06 | -6.41e-06 |
    |   59 |  68 |  27 | 133 |    5.889 |   -0.030 |   -0.644 |   6.009 |  2.84e-05 | -8.64e-06 | -8.05e-06 |
    |   60 |  51 |  52 |  67 |    3.844 |   -0.291 |   -0.747 |   4.202 |  1.89e-05 | -6.94e-06 | -9.34e-06 |
    |   61 |  26 |  27 |  68 |    3.967 |   -0.233 |   -0.807 |   4.321 |  1.94e-05 | -6.84e-06 | -1.01e-05 |
    |   62 |  73 |  83 | 103 |   11.413 |    2.615 |   -0.859 |  10.462 |  5.11e-05 | -3.89e-06 | -1.07e-05 |
    |   63 |  28 |  29 |  69 |    6.164 |   -0.141 |   -0.241 |   6.249 |  2.98e-05 | -9.57e-06 | -3.01e-06 |
    |   64 |  53 |  54 |  70 |    5.880 |   -0.103 |   -0.172 |   5.940 |  2.84e-05 | -8.97e-06 | -2.14e-06 |
    |   65 |  30 |  31 |  81 |    6.641 |   -0.030 |   -0.029 |   6.656 |  3.20e-05 | -9.72e-06 | -3.59e-07 |
    |   66 |  55 |  56 |  82 |    6.383 |    0.185 |   -0.159 |   6.299 |  3.04e-05 | -8.32e-06 | -1.99e-06 |
    |   67 | 106 | 140 | 172 |   12.851 |    2.373 |   -0.059 |  11.845 |  5.84e-05 | -7.13e-06 | -7.33e-07 |
    |   68 |  18 |  78 | 142 |    4.864 |   -0.126 |    0.859 |   5.148 |  2.36e-05 | -7.62e-06 |  1.07e-05 |
    |   69 | 130 |  66 | 169 |    5.845 |   -0.202 |    1.251 |   6.331 |  2.84e-05 | -9.40e-06 |  1.56e-05 |
    |   70 | 140 | 106 | 171 |   12.795 |    1.614 |    0.076 |  12.070 |  5.92e-05 | -1.07e-05 |  9.46e-07 |
    |   71 |  52 |  53 | 135 |    5.204 |   -0.214 |   -0.389 |   5.357 |  2.53e-05 | -8.53e-06 | -4.87e-06 |
    |   72 |  27 |  28 | 133 |    5.358 |   -0.275 |   -0.486 |   5.565 |  2.62e-05 | -9.05e-06 | -6.08e-06 |
    |   73 | 120 | 118 | 121 |    6.992 |   -0.425 |    0.130 |   7.217 |  3.42e-05 | -1.21e-05 |  1.62e-06 |
    |   74 |  39 |  40 |  71 |    6.523 |   -0.048 |    0.080 |   6.549 |  3.14e-05 | -9.64e-06 |  1.00e-06 |
    |   75 |  14 |  15 |  72 |    6.166 |    0.017 |    0.091 |   6.159 |  2.96e-05 | -8.81e-06 |  1.13e-06 |
    |   76 |  50 |  51 | 145 |    1.817 |    0.427 |   -0.901 |   2.268 |  8.12e-06 | -5.67e-07 | -1.13e-05 |
    |   77 | 105 |  75 | 106 |   11.832 |    2.815 |    0.989 |  10.842 |  5.28e-05 | -3.53e-06 |  1.24e-05 |
    |   78 |  97 |  98 | 102 |    6.975 |   -0.016 |    0.145 |   6.987 |  3.36e-05 | -1.01e-05 |  1.81e-06 |
    |   79 | 120 | 121 | 124 |    6.789 |   -0.358 |    0.152 |   6.980 |  3.32e-05 | -1.15e-05 |  1.90e-06 |
    |   80 | 128 |  70 | 189 |    6.343 |   -0.057 |   -0.138 |   6.376 |  3.06e-05 | -9.42e-06 | -1.72e-06 |
    |   81 |  73 | 103 | 138 |   13.396 |    2.036 |   -0.990 |  12.620 |  6.15e-05 | -9.53e-06 | -1.24e-05 |
    |   82 | 103 | 140 | 171 |   12.671 |    1.569 |   -0.106 |  11.966 |  5.87e-05 | -1.07e-05 | -1.32e-06 |
    |   83 | 106 |  75 | 141 |   13.419 |    1.930 |    0.957 |  12.674 |  6.17e-05 | -1.01e-05 |  1.20e-05 |
    |   84 | 145 |  67 | 146 |    4.950 |   -0.567 |   -1.427 |   5.809 |  2.46e-05 | -9.87e-06 | -1.78e-05 |
    |   85 |  97 |  96 |  98 |    7.098 |   -0.288 |   -0.005 |   7.246 |  3.45e-05 | -1.16e-05 | -6.03e-08 |
    |   86 | 121 | 118 | 122 |    6.989 |   -0.448 |   -0.027 |   7.223 |  3.42e-05 | -1.22e-05 | -3.38e-07 |
    |   87 |  98 |  96 | 108 |    7.093 |   -0.252 |   -0.099 |   7.224 |  3.45e-05 | -1.14e-05 | -1.24e-06 |
    |   88 | 103 |  83 | 131 |   11.472 |    2.534 |    0.243 |  10.447 |  5.15e-05 | -4.36e-06 |  3.04e-06 |
    |   89 | 108 | 190 | 203 |    7.104 |   -0.309 |   -0.269 |   7.278 |  3.46e-05 | -1.17e-05 | -3.36e-06 |
    |   90 | 121 | 122 | 123 |    6.799 |   -0.384 |   -0.073 |   7.001 |  3.32e-05 | -1.17e-05 | -9.07e-07 |
    |   91 |  47 |  48 | 138 |   14.605 |    0.993 |   -0.643 |  14.178 |  6.88e-05 | -1.63e-05 | -8.03e-06 |
    |   92 |  48 |  73 | 138 |   12.844 |    0.096 |   -1.228 |  12.972 |  6.16e-05 | -1.81e-05 | -1.53e-05 |
    |   93 |  98 | 108 | 109 |    6.892 |   -0.022 |   -0.223 |   6.914 |  3.32e-05 | -1.00e-05 | -2.79e-06 |
    |   94 |  47 | 138 | 141 |   13.272 |   -0.011 |   -0.014 |  13.278 |  6.38e-05 | -1.92e-05 | -1.75e-07 |
    |   95 |  21 |  22 |  77 |   14.371 |    1.109 |    0.581 |  13.886 |  6.75e-05 | -1.54e-05 |  7.26e-06 |
    |   96 |  23 |  79 | 139 |   12.976 |    0.089 |   -1.207 |  13.099 |  6.23e-05 | -1.83e-05 | -1.51e-05 |
    |   97 |   9 |  46 |  75 |   17.853 |    2.516 |    2.772 |  17.413 |  8.22e-05 | -1.37e-05 |  3.46e-05 |
    |   98 |  23 |   4 |  79 |   17.871 |    2.466 |   -2.741 |  17.433 |  8.24e-05 | -1.39e-05 | -3.43e-05 |
    |   99 |  22 |  23 | 139 |   14.598 |    0.979 |   -0.634 |  14.176 |  6.88e-05 | -1.63e-05 | -7.92e-06 |
    |  100 |  77 |  22 | 139 |   13.184 |    0.054 |   -0.049 |  13.158 |  6.33e-05 | -1.88e-05 | -6.16e-07 |
    |  101 |  16 |  17 |  65 |    5.236 |   -0.186 |    0.412 |   5.379 |  2.54e-05 | -8.45e-06 |  5.15e-06 |
    |  102 |  77 | 139 | 140 |   13.682 |    1.692 |    0.027 |  12.919 |  6.33e-05 | -1.16e-05 |  3.39e-07 |
    |  103 |  41 |  42 |  66 |    5.431 |   -0.109 |    0.396 |   5.529 |  2.63e-05 | -8.36e-06 |  4.95e-06 |
    |  104 |  48 |  10 |  73 |   17.907 |    2.516 |   -2.788 |  17.472 |  8.25e-05 | -1.37e-05 | -3.48e-05 |
    |  105 |  46 |  47 | 141 |   14.626 |    1.000 |    0.618 |  14.193 |  6.89e-05 | -1.63e-05 |  7.73e-06 |
    |  106 |  75 |  46 | 141 |   12.921 |    0.093 |    1.212 |  13.044 |  6.20e-05 | -1.82e-05 |  1.51e-05 |
    |  107 |  66 | 129 | 181 |    6.126 |   -0.236 |    0.425 |   6.290 |  2.98e-05 | -9.97e-06 |  5.32e-06 |
    |  108 | 117 | 118 | 120 |    6.909 |   -0.619 |    0.251 |   7.251 |  3.41e-05 | -1.29e-05 |  3.14e-06 |
    |  109 | 117 | 116 | 118 |    7.355 |   -0.687 |    0.242 |   7.733 |  3.64e-05 | -1.39e-05 |  3.02e-06 |
    |  110 |  51 |  67 | 145 |    5.116 |   -0.157 |   -0.899 |   5.424 |  2.48e-05 | -8.13e-06 | -1.12e-05 |
    |  111 |  71 | 129 | 200 |    6.577 |   -0.167 |    0.259 |   6.677 |  3.19e-05 | -1.03e-05 |  3.23e-06 |
    |  112 |  95 |  96 |  97 |    7.154 |   -0.532 |    0.139 |   7.438 |  3.52e-05 | -1.29e-05 |  1.73e-06 |
    |  113 | 123 | 122 | 125 |    6.846 |   -0.249 |   -0.137 |   6.977 |  3.33e-05 | -1.11e-05 | -1.72e-06 |
    |  114 | 109 | 108 | 128 |    6.899 |   -0.009 |   -0.179 |   6.911 |  3.32e-05 | -1.00e-05 | -2.24e-06 |
    |  115 |  95 |  97 | 107 |    7.189 |   -0.436 |    0.266 |   7.431 |  3.52e-05 | -1.25e-05 |  3.32e-06 |
    |  116 | 114 | 112 | 132 |    9.102 |   -1.069 |   -0.399 |   9.705 |  4.53e-05 | -1.83e-05 | -4.99e-06 |
    |  117 | 119 | 114 | 132 |    8.120 |   -1.241 |   -0.294 |   8.820 |  4.08e-05 | -1.77e-05 | -3.67e-06 |
    |  118 |  95 |  94 |  96 |    7.465 |   -0.717 |    0.052 |   7.848 |  3.69e-05 | -1.42e-05 |  6.50e-07 |
    |  119 |  69 |  29 | 161 |    6.548 |    0.008 |   -0.156 |   6.550 |  3.15e-05 | -9.41e-06 | -1.95e-06 |
    |  120 |  30 |  81 | 161 |    6.594 |    0.005 |   -0.049 |   6.592 |  3.17e-05 | -9.49e-06 | -6.07e-07 |
    |  121 |  77 | 131 | 177 |   13.692 |    2.616 |    1.612 |  12.895 |  6.21e-05 | -7.17e-06 |  2.01e-05 |
    |  122 |  33 |  34 | 148 |    6.669 |   -0.038 |   -0.015 |   6.688 |  3.21e-05 | -9.80e-06 | -1.84e-07 |
    |  123 | 116 | 114 | 119 |    7.996 |   -1.005 |   -0.172 |   8.548 |  3.99e-05 | -1.64e-05 | -2.15e-06 |
    |  124 |  17 |  18 | 142 |    3.842 |   -0.252 |    0.769 |   4.192 |  1.88e-05 | -6.75e-06 |  9.62e-06 |
    |  125 |  94 |  92 | 104 |    8.018 |   -1.097 |   -0.361 |   8.642 |  4.01e-05 | -1.68e-05 | -4.51e-06 |
    |  126 |  38 |  39 | 153 |    6.647 |   -0.040 |    0.028 |   6.668 |  3.20e-05 | -9.78e-06 |  3.55e-07 |
    |  127 |  13 |  14 | 154 |    6.362 |    0.166 |    0.185 |   6.289 |  3.03e-05 | -8.38e-06 |  2.32e-06 |
    |  128 |  58 |  59 | 150 |    6.432 |    1.930 |   -0.319 |   5.744 |  2.81e-05 |  0.00e+00 | -3.98e-06 |
    |  129 | 117 | 120 | 129 |    6.971 |   -0.383 |    0.382 |   7.201 |  3.41e-05 | -1.19e-05 |  4.78e-06 |
    |  130 |  72 |  15 | 160 |    6.292 |    0.003 |    0.060 |   6.291 |  3.02e-05 | -9.06e-06 |  7.49e-07 |
    |  131 |  36 |  37 |  99 |    6.656 |   -0.005 |    0.011 |   6.659 |  3.20e-05 | -9.62e-06 |  1.41e-07 |
    |  132 |  61 |  62 | 100 |    6.549 |    1.965 |    0.659 |   5.932 |  2.87e-05 |  0.00e+00 |  8.24e-06 |
    |  133 |  35 |  36 | 149 |    6.671 |   -0.040 |    0.014 |   6.691 |  3.21e-05 | -9.82e-06 |  1.72e-07 |
    |  134 |  60 |  61 | 147 |    6.446 |    1.934 |    0.326 |   5.757 |  2.82e-05 |  0.00e+00 |  4.08e-06 |
    |  135 |  34 |  35 |  63 |    6.685 |   -0.063 |   -0.000 |   6.717 |  3.22e-05 | -9.95e-06 | -5.80e-09 |
    |  136 |  59 |  60 |  64 |    6.462 |    1.939 |    0.014 |   5.744 |  2.83e-05 |  0.00e+00 |  1.74e-07 |
    |  137 |  76 |  75 | 105 |   11.003 |    1.750 |    0.328 |  10.256 |  5.04e-05 | -7.45e-06 |  4.10e-06 |
    |  138 | 129 |  66 | 180 |    6.560 |   -0.470 |    0.709 |   6.917 |  3.22e-05 | -1.17e-05 |  8.86e-06 |
    |  139 |  73 |  74 |  83 |   11.381 |    1.704 |   -0.361 |  10.650 |  5.23e-05 | -8.22e-06 | -4.52e-06 |
    |  140 | 190 | 136 | 203 |    6.656 |   -0.727 |   -0.509 |   7.102 |  3.30e-05 | -1.31e-05 | -6.36e-06 |
    |  141 |  93 |  94 |  95 |    7.513 |   -0.994 |    0.202 |   8.064 |  3.76e-05 | -1.56e-05 |  2.53e-06 |
    |  142 |  79 |   4 |  80 |   11.640 |    3.164 |   -2.461 |  11.262 |  5.14e-05 | -1.58e-06 | -3.08e-05 |
    |  143 |  91 |  93 | 126 |    8.319 |   -0.876 |    0.887 |   8.923 |  4.13e-05 | -1.62e-05 |  1.11e-05 |
    |  144 |   9 |  75 |  76 |   11.679 |    3.231 |    2.478 |  11.292 |  5.15e-05 | -1.31e-06 |  3.10e-05 |
    |  145 | 136 | 104 | 178 |    6.704 |   -0.841 |   -0.847 |   7.310 |  3.34e-05 | -1.37e-05 | -1.06e-05 |
    |  146 | 102 |  98 | 165 |    6.863 |    0.243 |   -0.046 |   6.745 |  3.26e-05 | -8.73e-06 | -5.77e-07 |
    |  147 |  84 |  90 | 137 |   10.398 |    0.093 |   -0.114 |  10.354 |  4.99e-05 | -1.45e-05 | -1.43e-06 |
    |  148 |  84 |  87 |  90 |    9.681 |   -0.557 |    0.362 |   9.991 |  4.73e-05 | -1.66e-05 |  4.53e-06 |
    |  149 | 121 | 123 | 163 |    6.812 |   -0.263 |   -0.000 |   6.947 |  3.31e-05 | -1.11e-05 | -3.35e-09 |
    |  150 | 115 | 116 | 117 |    7.301 |   -0.964 |    0.401 |   7.858 |  3.65e-05 | -1.52e-05 |  5.01e-06 |
    |  151 |  16 |  65 | 160 |    6.219 |   -0.011 |    0.285 |   6.244 |  2.99e-05 | -9.02e-06 |  3.56e-06 |
    |  152 |  93 |  92 |  94 |    8.058 |   -1.034 |    0.205 |   8.629 |  4.02e-05 | -1.66e-05 |  2.57e-06 |
    |  153 | 145 | 101 | 195 |    4.299 |    1.734 |   -2.824 |   6.161 |  1.82e-05 |  2.14e-06 | -3.53e-05 |
    |  154 |   5 |  25 | 198 |   -0.105 |    1.023 |   -0.192 |   1.129 | -1.98e-06 |  5.07e-06 | -2.41e-06 |
    |  155 |  78 | 143 | 144 |    6.040 |   -0.370 |    1.734 |   6.919 |  2.96e-05 | -1.05e-05 |  2.17e-05 |
    |  156 | 122 | 118 | 162 |    7.013 |   -0.647 |   -0.127 |   7.361 |  3.47e-05 | -1.32e-05 | -1.59e-06 |
    |  157 | 113 | 115 | 130 |    7.890 |   -0.852 |    1.106 |   8.566 |  3.92e-05 | -1.55e-05 |  1.38e-05 |
    |  158 |  34 |  63 | 148 |    6.668 |   -0.095 |   -0.011 |   6.716 |  3.22e-05 | -1.01e-05 | -1.43e-07 |
    |  159 |  59 |  64 | 150 |    6.198 |    1.103 |   -0.163 |   5.734 |  2.82e-05 | -3.64e-06 | -2.04e-06 |
    |  160 | 115 | 114 | 116 |    7.954 |   -1.011 |    0.416 |   8.535 |  3.97e-05 | -1.63e-05 |  5.20e-06 |
    |  161 |  36 |  99 | 149 |    6.668 |   -0.057 |    0.017 |   6.697 |  3.21e-05 | -9.89e-06 |  2.07e-07 |
    |  162 |  61 | 100 | 147 |    6.259 |    1.157 |    0.462 |   5.824 |  2.84e-05 | -3.47e-06 |  5.77e-06 |
    |  163 |  63 |  35 | 149 |    6.667 |   -0.106 |    0.011 |   6.721 |  3.22e-05 | -1.01e-05 |  1.43e-07 |
    |  164 |  64 |  60 | 147 |    6.226 |    1.175 |    0.173 |   5.737 |  2.82e-05 | -3.33e-06 |  2.16e-06 |
    |  165 | 123 | 125 | 158 |    6.643 |   -0.268 |   -0.143 |   6.785 |  3.23e-05 | -1.09e-05 | -1.79e-06 |
    |  166 | 131 |  83 | 137 |   11.156 |    1.800 |   -0.111 |  10.376 |  5.10e-05 | -7.44e-06 | -1.39e-06 |
    |  167 |  73 |  10 |  74 |   10.823 |    3.287 |   -2.477 |  10.524 |  4.73e-05 |  1.95e-07 | -3.10e-05 |
    |  168 |  66 | 130 | 180 |    6.672 |   -0.431 |    0.807 |   7.037 |  3.27e-05 | -1.17e-05 |  1.01e-05 |
    |  169 |  91 |  92 |  93 |    8.006 |   -1.247 |    0.331 |   8.716 |  4.03e-05 | -1.75e-05 |  4.13e-06 |
    |  170 |  43 |  85 | 169 |    5.056 |   -0.064 |    1.035 |   5.395 |  2.44e-05 | -7.60e-06 |  1.29e-05 |
    |  171 | 122 | 162 | 175 |    7.092 |   -0.409 |   -0.264 |   7.319 |  3.47e-05 | -1.22e-05 | -3.30e-06 |
    |  172 | 140 | 103 | 197 |   12.817 |    1.824 |   -0.013 |  12.010 |  5.90e-05 | -9.72e-06 | -1.58e-07 |
    |  173 |  95 | 107 | 156 |    6.852 |   -0.692 |    0.434 |   7.262 |  3.39e-05 | -1.32e-05 |  5.42e-06 |
    |  174 |  91 |  87 |  92 |    8.864 |   -1.265 |    0.334 |   9.577 |  4.44e-05 | -1.89e-05 |  4.18e-06 |
    |  175 | 119 | 132 | 152 |    8.054 |   -0.844 |   -0.990 |   8.678 |  3.99e-05 | -1.57e-05 | -1.24e-05 |
    |  176 |  76 | 105 | 110 |   10.499 |    1.094 |    0.717 |  10.074 |  4.89e-05 | -9.88e-06 |  8.96e-06 |
    |  177 | 137 |  90 | 166 |   10.202 |    0.524 |    1.205 |  10.167 |  4.83e-05 | -1.22e-05 |  1.51e-05 |
    |  178 | 113 | 114 | 115 |    7.825 |   -1.186 |    0.520 |   8.528 |  3.93e-05 | -1.70e-05 |  6.50e-06 |
    |  179 |  90 |  87 |  91 |    9.527 |   -0.970 |    0.153 |  10.051 |  4.72e-05 | -1.84e-05 |  1.91e-06 |
    |  180 |  20 |   3 | 143 |    5.811 |    3.438 |    4.324 |   9.039 |  2.30e-05 |  8.15e-06 |  5.41e-05 |
    |  181 |  83 |  74 |  84 |   10.574 |    0.773 |   -0.924 |  10.334 |  4.97e-05 | -1.15e-05 | -1.16e-05 |
    |  182 | 113 | 112 | 114 |    8.875 |   -1.132 |    0.593 |   9.547 |  4.43e-05 | -1.82e-05 |  7.41e-06 |
    |  183 |  39 |  71 | 153 |    6.586 |   -0.003 |    0.053 |   6.588 |  3.17e-05 | -9.51e-06 |  6.60e-07 |
    |  184 |  14 |  72 | 154 |    6.624 |   -0.005 |    0.079 |   6.628 |  3.19e-05 | -9.58e-06 |  9.84e-07 |
    |  185 | 116 | 119 | 162 |    7.267 |   -1.028 |   -0.246 |   7.843 |  3.64e-05 | -1.54e-05 | -3.07e-06 |
    |  186 |  80 |   4 |  88 |    9.604 |    1.211 |   -1.245 |   9.312 |  4.44e-05 | -8.03e-06 | -1.56e-05 |
    |  187 |  83 |  84 | 137 |   10.673 |    1.190 |    0.376 |  10.152 |  4.96e-05 | -9.67e-06 |  4.71e-06 |
    |  188 |  33 | 148 | 157 |    6.668 |   -0.062 |   -0.016 |   6.700 |  3.21e-05 | -9.92e-06 | -2.02e-07 |
    |  189 |  68 | 133 | 184 |    5.661 |   -0.662 |   -0.967 |   6.248 |  2.82e-05 | -1.14e-05 | -1.21e-05 |
    |  190 | 126 |  93 | 156 |    6.886 |   -1.147 |    0.836 |   7.662 |  3.48e-05 | -1.54e-05 |  1.04e-05 |
    |  191 |  45 |   9 | 151 |    5.717 |    3.291 |    4.502 |   9.247 |  2.27e-05 |  7.58e-06 |  5.63e-05 |
    |  192 |  58 | 150 | 159 |    6.252 |    1.156 |   -0.464 |   5.818 |  2.84e-05 | -3.46e-06 | -5.80e-06 |
    |  193 | 146 |  67 | 178 |    6.820 |   -0.325 |   -1.347 |   7.367 |  3.33e-05 | -1.14e-05 | -1.68e-05 |
    |  194 |  32 |  33 | 157 |    6.655 |   -0.004 |   -0.010 |   6.657 |  3.20e-05 | -9.62e-06 | -1.26e-07 |
    |  195 |  57 |  58 | 159 |    6.544 |    1.963 |   -0.663 |   5.928 |  2.86e-05 |  0.00e+00 | -8.29e-06 |
    |  196 | 104 | 136 | 190 |    7.431 |   -0.547 |   -0.470 |   7.762 |  3.65e-05 | -1.33e-05 | -5.87e-06 |
    |  197 | 135 | 136 | 178 |    6.732 |   -0.231 |   -0.657 |   6.944 |  3.27e-05 | -1.08e-05 | -8.21e-06 |
    |  198 |  84 |  86 |  87 |    9.901 |   -0.508 |   -0.826 |  10.265 |  4.83e-05 | -1.67e-05 | -1.03e-05 |
    |  199 |  93 |  95 | 156 |    7.638 |   -0.634 |    0.516 |   8.024 |  3.76e-05 | -1.41e-05 |  6.46e-06 |
    |  200 |  84 |  74 |  86 |    9.610 |    0.104 |   -0.436 |   9.588 |  4.61e-05 | -1.34e-05 | -5.45e-06 |
    |  201 | 111 | 112 | 113 |    8.851 |   -0.961 |    0.505 |   9.409 |  4.39e-05 | -1.74e-05 |  6.32e-06 |
    |  202 |  99 | 153 | 170 |    6.656 |   -0.066 |    0.048 |   6.690 |  3.21e-05 | -9.92e-06 |  5.96e-07 |
    |  203 |  10 |  49 | 101 |    5.828 |    3.560 |   -4.336 |   9.071 |  2.29e-05 |  8.71e-06 | -5.42e-05 |
    |  204 |  15 |  16 | 160 |    5.838 |   -0.149 |    0.184 |   5.922 |  2.83e-05 | -9.13e-06 |  2.30e-06 |
    |  205 |  50 | 145 | 195 |    1.945 |   -0.197 |   -0.485 |   2.216 |  9.63e-06 | -3.75e-06 | -6.07e-06 |
    |  206 |  76 | 110 | 111 |   10.149 |    0.231 |    0.326 |  10.051 |  4.85e-05 | -1.35e-05 |  4.08e-06 |
    |  207 | 111 | 110 | 112 |   10.111 |   -0.598 |    0.659 |  10.485 |  4.95e-05 | -1.75e-05 |  8.24e-06 |
    |  208 |  80 |  88 |  89 |    9.997 |   -0.001 |   -1.837 |  10.491 |  4.81e-05 | -1.44e-05 | -2.30e-05 |
    |  209 | 102 | 192 | 196 |    6.766 |    0.724 |    0.202 |   6.445 |  3.15e-05 | -6.28e-06 |  2.53e-06 |
    |  210 |  86 | 146 | 168 |    8.934 |   -0.936 |   -1.043 |   9.608 |  4.43e-05 | -1.74e-05 | -1.30e-05 |
    |  211 |  19 |   2 | 193 |    0.004 |    0.731 |    0.162 |   0.781 | -1.03e-06 |  3.51e-06 |  2.02e-06 |
    |  212 |  44 |   8 | 194 |    0.041 |    0.707 |    0.141 |   0.730 | -8.20e-07 |  3.34e-06 |  1.77e-06 |
    |  213 |  29 |  30 | 161 |    6.487 |   -0.090 |   -0.105 |   6.535 |  3.13e-05 | -9.79e-06 | -1.31e-06 |
    |  214 |  70 |  54 | 189 |    6.360 |   -0.018 |   -0.127 |   6.373 |  3.06e-05 | -9.26e-06 | -1.59e-06 |
    |  215 |  55 |  82 | 189 |    6.462 |   -0.036 |   -0.020 |   6.480 |  3.11e-05 | -9.50e-06 | -2.55e-07 |
    |  216 |  89 |  88 | 127 |    7.542 |   -0.555 |   -1.492 |   8.249 |  3.71e-05 | -1.35e-05 | -1.86e-05 |
    |  217 |  11 |  50 | 195 |    0.009 |    0.722 |   -0.170 |   0.775 | -9.96e-07 |  3.46e-06 | -2.12e-06 |
    |  218 | 118 | 116 | 162 |    7.367 |   -0.682 |   -0.079 |   7.732 |  3.64e-05 | -1.39e-05 | -9.82e-07 |
    |  219 |  90 | 144 | 166 |    9.816 |   -0.393 |    0.871 |  10.131 |  4.78e-05 | -1.60e-05 |  1.09e-05 |
    |  220 | 124 | 121 | 163 |    6.779 |   -0.275 |    0.070 |   6.922 |  3.30e-05 | -1.11e-05 |  8.73e-07 |
    |  221 | 100 | 154 | 196 |    6.669 |    0.537 |    0.546 |   6.487 |  3.13e-05 | -7.04e-06 |  6.83e-06 |
    |  222 | 155 | 102 | 196 |    6.735 |    0.215 |    0.322 |   6.653 |  3.21e-05 | -8.68e-06 |  4.03e-06 |
    |  223 | 154 |  72 | 155 |    6.632 |    0.193 |    0.334 |   6.563 |  3.16e-05 | -8.64e-06 |  4.18e-06 |
    |  224 |  71 |  40 | 181 |    6.368 |    0.001 |    0.129 |   6.371 |  3.06e-05 | -9.18e-06 |  1.61e-06 |
    |  225 |  66 |  42 | 169 |    5.380 |   -0.055 |    0.425 |   5.458 |  2.59e-05 | -8.03e-06 |  5.31e-06 |
    |  226 | 134 |  69 | 175 |    6.818 |   -0.231 |   -0.434 |   6.977 |  3.31e-05 | -1.09e-05 | -5.42e-06 |
    |  227 | 157 | 148 | 158 |    6.661 |   -0.064 |   -0.042 |   6.693 |  3.21e-05 | -9.92e-06 | -5.20e-07 |
    |  228 | 162 | 134 | 175 |    6.707 |   -0.802 |   -0.478 |   7.190 |  3.34e-05 | -1.35e-05 | -5.98e-06 |
    |  229 |  70 | 128 | 203 |    6.627 |   -0.242 |   -0.351 |   6.779 |  3.22e-05 | -1.07e-05 | -4.39e-06 |
    |  230 | 152 |  68 | 184 |    6.710 |   -0.758 |   -1.299 |   7.467 |  3.34e-05 | -1.33e-05 | -1.62e-05 |
    |  231 | 131 |  77 | 197 |   12.084 |    1.562 |    0.751 |  11.458 |  5.58e-05 | -9.92e-06 |  9.38e-06 |
    |  232 |  78 |  19 | 193 |    1.952 |   -0.209 |    0.499 |   2.238 |  9.68e-06 | -3.82e-06 |  6.24e-06 |
    |  233 |  97 | 102 | 176 |    6.947 |   -0.082 |    0.183 |   6.995 |  3.35e-05 | -1.04e-05 |  2.29e-06 |
    |  234 |  41 |  66 | 181 |    6.266 |    0.002 |    0.306 |   6.287 |  3.01e-05 | -9.03e-06 |  3.83e-06 |
    |  235 | 127 |  88 | 164 |    7.842 |   -0.044 |   -2.282 |   8.802 |  3.78e-05 | -1.15e-05 | -2.85e-05 |
    |  236 | 140 | 139 | 172 |   12.342 |    1.003 |   -0.412 |  11.894 |  5.79e-05 | -1.30e-05 | -5.15e-06 |
    |  237 | 104 |  92 | 168 |    8.226 |   -1.225 |   -0.450 |   8.936 |  4.13e-05 | -1.78e-05 | -5.63e-06 |
    |  238 | 143 |  78 | 193 |    4.234 |    1.814 |    2.834 |   6.135 |  1.77e-05 |  2.62e-06 |  3.54e-05 |
    |  239 |  21 |  77 | 177 |   13.277 |    0.228 |    1.171 |  13.320 |  6.35e-05 | -1.81e-05 |  1.46e-05 |
    |  240 | 108 |  96 | 190 |    7.063 |   -0.501 |   -0.236 |   7.338 |  3.47e-05 | -1.26e-05 | -2.96e-06 |
    |  241 | 155 |  72 | 176 |    6.726 |   -0.105 |    0.255 |   6.793 |  3.25e-05 | -1.02e-05 |  3.19e-06 |
    |  242 |  98 | 109 | 165 |    6.825 |    0.155 |   -0.094 |   6.751 |  3.26e-05 | -9.10e-06 | -1.18e-06 |
    |  243 | 119 | 152 | 184 |    7.253 |   -0.785 |   -0.795 |   7.798 |  3.60e-05 | -1.42e-05 | -9.94e-06 |
    |  244 | 106 | 141 | 171 |   12.731 |    1.015 |    0.260 |  12.263 |  5.97e-05 | -1.35e-05 |  3.25e-06 |
    |  245 |  81 | 157 | 158 |    6.658 |   -0.088 |   -0.045 |   6.703 |  3.21e-05 | -1.00e-05 | -5.69e-07 |
    |  246 | 138 | 103 | 171 |   12.739 |    1.083 |   -0.304 |  12.245 |  5.97e-05 | -1.32e-05 | -3.80e-06 |
    |  247 | 154 | 155 | 196 |    6.711 |    0.393 |    0.240 |   6.537 |  3.17e-05 | -7.79e-06 |  3.00e-06 |
    |  248 | 113 | 130 | 167 |    7.029 |   -0.984 |    1.175 |   7.838 |  3.52e-05 | -1.49e-05 |  1.47e-05 |
    |  249 |   7 |  38 | 185 |    6.673 |   -0.010 |   -0.002 |   6.678 |  3.21e-05 | -9.67e-06 | -2.80e-08 |
    |  250 |   1 |  13 | 186 |    7.867 |    0.954 |    1.078 |   7.667 |  3.64e-05 | -6.76e-06 |  1.35e-05 |
    |  251 |  85 |  44 | 194 |    2.157 |   -0.198 |    0.575 |   2.473 |  1.07e-05 | -4.06e-06 |  7.19e-06 |
    |  252 | 102 | 155 | 176 |    6.795 |    0.241 |    0.239 |   6.690 |  3.23e-05 | -8.64e-06 |  2.99e-06 |
    |  253 |  31 |   6 | 187 |    6.671 |   -0.013 |   -0.000 |   6.678 |  3.21e-05 | -9.69e-06 | -4.00e-09 |
    |  254 |  56 |  12 | 188 |    7.891 |    0.984 |   -1.066 |   7.673 |  3.65e-05 | -6.65e-06 | -1.33e-05 |
    |  255 |  94 | 104 | 190 |    7.271 |   -1.015 |   -0.400 |   7.858 |  3.64e-05 | -1.54e-05 | -4.99e-06 |
    |  256 | 117 | 129 | 180 |    6.644 |   -0.632 |    0.544 |   7.044 |  3.29e-05 | -1.26e-05 |  6.80e-06 |
    |  257 | 151 |  85 | 194 |    4.296 |    1.877 |    2.750 |   6.050 |  1.79e-05 |  2.83e-06 |  3.44e-05 |
    |  258 |  37 |   7 | 185 |    6.660 |    0.008 |   -0.003 |   6.656 |  3.20e-05 | -9.57e-06 | -3.32e-08 |
    |  259 |  62 |   1 | 186 |    6.947 |    2.084 |    1.053 |   6.439 |  3.04e-05 |  0.00e+00 |  1.32e-05 |
    |  260 |   6 |  32 | 187 |    6.661 |    0.008 |    0.002 |   6.657 |  3.20e-05 | -9.57e-06 |  2.94e-08 |
    |  261 |  12 |  57 | 188 |    6.955 |    2.087 |   -1.061 |   6.450 |  3.04e-05 |  0.00e+00 | -1.33e-05 |
    |  262 |  87 |  86 | 168 |    8.668 |   -0.952 |   -0.524 |   9.226 |  4.30e-05 | -1.71e-05 | -6.55e-06 |
    |  263 | 130 | 115 | 180 |    6.631 |   -0.977 |    0.990 |   7.372 |  3.33e-05 | -1.43e-05 |  1.24e-05 |
    |  264 | 158 | 148 | 183 |    6.666 |   -0.155 |   -0.052 |   6.746 |  3.23e-05 | -1.04e-05 | -6.49e-07 |
    |  265 |   4 |  24 | 201 |    4.044 |    3.770 |   -3.874 |   7.768 |  1.40e-05 |  1.23e-05 | -4.84e-05 |
    |  266 | 144 | 143 | 166 |    8.286 |   -0.148 |    2.715 |   9.592 |  4.00e-05 | -1.27e-05 |  3.39e-05 |
    |  267 |   9 |  76 | 202 |    9.272 |    1.262 |    1.232 |   8.968 |  4.28e-05 | -7.30e-06 |  1.54e-05 |
    |  268 | 123 | 158 | 183 |    6.756 |   -0.122 |   -0.071 |   6.819 |  3.27e-05 | -1.03e-05 | -8.84e-07 |
    |  269 | 143 |   3 | 166 |    9.538 |    0.722 |    1.753 |   9.687 |  4.48e-05 | -1.03e-05 |  2.19e-05 |
    |  270 |   2 |  20 | 193 |    0.960 |   -0.193 |    0.258 |   1.159 |  4.89e-06 | -2.31e-06 |  3.23e-06 |
    |  271 | 146 |  86 | 174 |    7.123 |   -0.986 |   -1.846 |   8.304 |  3.57e-05 | -1.50e-05 | -2.31e-05 |
    |  272 |  38 | 153 | 185 |    6.649 |    0.001 |    0.007 |   6.648 |  3.20e-05 | -9.58e-06 |  8.49e-08 |
    |  273 |  13 | 154 | 186 |    6.903 |   -0.118 |    0.361 |   6.991 |  3.34e-05 | -1.05e-05 |  4.51e-06 |
    |  274 | 101 | 145 | 174 |    6.193 |   -0.389 |   -1.556 |   6.941 |  3.03e-05 | -1.08e-05 | -1.94e-05 |
    |  275 |   8 |  45 | 194 |    1.025 |   -0.123 |    0.330 |   1.232 |  5.10e-06 | -2.07e-06 |  4.12e-06 |
    |  276 |  49 |  11 | 195 |    0.946 |   -0.193 |   -0.248 |   1.140 |  4.83e-06 | -2.29e-06 | -3.10e-06 |
    |  277 | 170 | 153 | 179 |    6.623 |   -0.056 |    0.094 |   6.654 |  3.19e-05 | -9.82e-06 |  1.18e-06 |
    |  278 |  82 | 159 | 173 |    6.666 |    0.419 |   -0.513 |   6.528 |  3.14e-05 | -7.60e-06 | -6.42e-06 |
    |  279 |  88 |   4 | 201 |    9.612 |    1.154 |   -3.141 |  10.594 |  4.45e-05 | -8.32e-06 | -3.93e-05 |
    |  280 | 120 | 124 | 200 |    6.816 |   -0.221 |    0.225 |   6.940 |  3.31e-05 | -1.09e-05 |  2.81e-06 |
    |  281 | 151 |   9 | 202 |    9.480 |    0.148 |    1.882 |   9.956 |  4.54e-05 | -1.30e-05 |  2.35e-05 |
    |  282 | 153 |  99 | 185 |    6.624 |   -0.032 |    0.035 |   6.640 |  3.19e-05 | -9.71e-06 |  4.44e-07 |
    |  283 | 154 | 100 | 186 |    6.890 |    1.105 |    0.699 |   6.523 |  3.15e-05 | -4.63e-06 |  8.74e-06 |
    |  284 | 145 | 146 | 174 |    7.356 |   -0.278 |   -1.951 |   8.225 |  3.58e-05 | -1.19e-05 | -2.44e-05 |
    |  285 |  81 |  31 | 187 |    6.655 |    0.001 |   -0.010 |   6.655 |  3.20e-05 | -9.59e-06 | -1.19e-07 |
    |  286 |  82 |  56 | 188 |    6.798 |   -0.158 |   -0.293 |   6.897 |  3.29e-05 | -1.06e-05 | -3.66e-06 |
    |  287 | 102 | 165 | 192 |    6.709 |    0.548 |    0.182 |   6.461 |  3.15e-05 | -7.04e-06 |  2.28e-06 |
    |  288 | 111 | 113 | 167 |    8.802 |   -0.854 |    1.579 |   9.654 |  4.35e-05 | -1.68e-05 |  1.97e-05 |
    |  289 |  67 | 135 | 178 |    5.470 |   -0.589 |   -1.005 |   6.044 |  2.71e-05 | -1.07e-05 | -1.26e-05 |
    |  290 | 163 | 123 | 183 |    6.722 |   -0.199 |   -0.042 |   6.825 |  3.26e-05 | -1.07e-05 | -5.21e-07 |
    |  291 |  42 |  43 | 169 |    3.826 |   -0.243 |    0.759 |   4.167 |  1.87e-05 | -6.69e-06 |  9.49e-06 |
    |  292 | 133 | 134 | 184 |    6.895 |   -0.212 |   -0.723 |   7.114 |  3.35e-05 | -1.10e-05 | -9.04e-06 |
    |  293 | 128 | 108 | 203 |    6.667 |   -0.210 |   -0.314 |   6.796 |  3.24e-05 | -1.06e-05 | -3.92e-06 |
    |  294 |  92 |  87 | 168 |    8.973 |   -1.156 |   -0.576 |   9.654 |  4.48e-05 | -1.85e-05 | -7.20e-06 |
    |  295 | 141 | 138 | 171 |   13.699 |    1.411 |   -0.036 |  13.051 |  6.38e-05 | -1.30e-05 | -4.52e-07 |
    |  296 | 139 |  79 | 172 |   13.641 |    2.344 |   -1.136 |  12.786 |  6.22e-05 | -8.40e-06 | -1.42e-05 |
    |  297 |   3 |  21 | 177 |   18.803 |    2.643 |    3.187 |  18.475 |  8.66e-05 | -1.44e-05 |  3.98e-05 |
    |  298 | 142 |  78 | 191 |    4.684 |   -0.586 |    1.524 |   5.656 |  2.34e-05 | -9.57e-06 |  1.90e-05 |
    |  299 | 107 |  97 | 176 |    6.780 |   -0.316 |    0.350 |   6.970 |  3.31e-05 | -1.13e-05 |  4.38e-06 |
    |  300 | 103 | 131 | 197 |   12.354 |    2.080 |    0.457 |  11.484 |  5.64e-05 | -7.82e-06 |  5.71e-06 |
    |  301 | 125 | 122 | 175 |    6.685 |   -0.443 |   -0.264 |   6.932 |  3.28e-05 | -1.18e-05 | -3.30e-06 |
    |  302 | 129 | 120 | 200 |    6.583 |   -0.422 |    0.355 |   6.832 |  3.23e-05 | -1.15e-05 |  4.43e-06 |
    |  303 |  40 |  41 | 181 |    6.111 |   -0.137 |    0.227 |   6.194 |  2.96e-05 | -9.48e-06 |  2.84e-06 |
    |  304 | 172 |  79 | 182 |   11.366 |    2.706 |   -0.801 |  10.376 |  5.07e-05 | -3.38e-06 | -1.00e-05 |
    |  305 | 136 |  70 | 203 |    6.833 |   -0.183 |   -0.349 |   6.953 |  3.31e-05 | -1.07e-05 | -4.36e-06 |
    |  306 | 149 |  99 | 170 |    6.658 |   -0.061 |    0.046 |   6.689 |  3.21e-05 | -9.89e-06 |  5.81e-07 |
    |  307 |  54 |  55 | 189 |    6.084 |    0.024 |   -0.082 |   6.074 |  2.92e-05 | -8.66e-06 | -1.02e-06 |
    |  308 |  96 |  94 | 190 |    7.479 |   -0.648 |   -0.217 |   7.832 |  3.69e-05 | -1.39e-05 | -2.71e-06 |
    |  309 | 111 | 167 | 202 |    8.537 |   -0.479 |    1.249 |   9.049 |  4.17e-05 | -1.46e-05 |  1.56e-05 |
    |  310 | 115 | 117 | 180 |    7.409 |   -0.546 |    0.704 |   7.793 |  3.64e-05 | -1.33e-05 |  8.80e-06 |
    |  311 | 126 | 142 | 191 |    7.121 |   -0.248 |    1.207 |   7.544 |  3.46e-05 | -1.15e-05 |  1.51e-05 |
    |  312 |  77 | 140 | 197 |   12.548 |    1.405 |    0.265 |  11.916 |  5.83e-05 | -1.13e-05 |  3.31e-06 |
    |  313 |  79 |  80 | 182 |   11.232 |    1.804 |   -0.512 |  10.485 |  5.14e-05 | -7.53e-06 | -6.40e-06 |
    |  314 | 159 | 150 | 173 |    6.698 |    1.290 |   -0.452 |   6.205 |  3.03e-05 | -3.46e-06 | -5.65e-06 |
    |  315 |  99 |  37 | 185 |    6.666 |   -0.012 |    0.006 |   6.672 |  3.21e-05 | -9.67e-06 |  8.00e-08 |
    |  316 | 100 |  62 | 186 |    6.476 |    0.968 |    0.772 |   6.197 |  2.97e-05 | -4.69e-06 |  9.65e-06 |
    |  317 | 157 |  81 | 187 |    6.627 |   -0.037 |   -0.036 |   6.646 |  3.19e-05 | -9.74e-06 | -4.51e-07 |
    |  318 | 159 |  82 | 188 |    6.928 |    1.097 |   -0.707 |   6.565 |  3.17e-05 | -4.72e-06 | -8.83e-06 |
    |  319 | 148 |  63 | 183 |    6.715 |   -0.083 |   -0.021 |   6.756 |  3.24e-05 | -1.01e-05 | -2.69e-07 |
    |  320 | 153 |  71 | 179 |    6.551 |   -0.135 |    0.135 |   6.624 |  3.17e-05 | -1.01e-05 |  1.69e-06 |
    |  321 |  64 | 147 | 192 |    6.648 |    1.302 |    0.164 |   6.108 |  3.01e-05 | -3.33e-06 |  2.05e-06 |
    |  322 | 182 |  80 | 199 |   10.900 |    1.126 |   -0.811 |  10.478 |  5.08e-05 | -1.03e-05 | -1.01e-05 |
    |  323 |  24 |   5 | 198 |    0.408 |   -0.700 |    0.026 |   0.972 |  2.97e-06 | -3.95e-06 |  3.27e-07 |
    |  324 | 165 |  64 | 192 |    6.497 |    0.705 |   -0.042 |   6.175 |  3.02e-05 | -5.98e-06 | -5.24e-07 |
    |  325 |  63 | 163 | 183 |    6.687 |   -0.170 |    0.003 |   6.773 |  3.24e-05 | -1.05e-05 |  4.07e-08 |
    |  326 |  80 |  89 | 199 |   10.015 |    0.358 |   -0.313 |   9.856 |  4.76e-05 | -1.27e-05 | -3.91e-06 |
    |  327 | 147 | 100 | 196 |    6.621 |    1.263 |    0.476 |   6.144 |  3.00e-05 | -3.48e-06 |  5.95e-06 |
    |  328 | 192 | 147 | 196 |    6.479 |    0.641 |    0.313 |   6.207 |  3.02e-05 | -6.26e-06 |  3.91e-06 |
    |  329 |  78 | 144 | 191 |    6.987 |   -0.199 |    2.082 |   7.954 |  3.39e-05 | -1.10e-05 |  2.60e-05 |
    |  330 |  32 | 157 | 187 |    6.667 |   -0.016 |   -0.005 |   6.674 |  3.21e-05 | -9.69e-06 | -5.66e-08 |
    |  331 |  57 | 159 | 188 |    6.475 |    0.951 |   -0.775 |   6.202 |  2.98e-05 | -4.77e-06 | -9.69e-06 |
    |  332 | 164 |  88 | 201 |    4.094 |   -0.240 |   -2.217 |   5.705 |  2.00e-05 | -7.06e-06 | -2.77e-05 |
    |  333 |  76 | 111 | 202 |    9.978 |   -0.081 |    1.699 |  10.442 |  4.81e-05 | -1.48e-05 |  2.12e-05 |
    |  334 |  20 | 143 | 193 |    0.156 |    0.232 |    1.145 |   1.994 |  4.17e-07 |  8.91e-07 |  1.43e-05 |
    |  335 |  45 | 151 | 194 |    0.428 |    0.031 |    0.975 |   1.738 |  2.01e-06 | -4.66e-07 |  1.22e-05 |
    |  336 | 124 | 179 | 200 |    6.595 |   -0.224 |    0.185 |   6.718 |  3.20e-05 | -1.06e-05 |  2.31e-06 |
    |  337 |  25 | 164 | 198 |    1.147 |   -0.260 |   -0.297 |   1.396 |  5.89e-06 | -2.91e-06 | -3.72e-06 |
    |  338 | 101 |  49 | 195 |    0.093 |    0.206 |   -1.189 |   2.067 |  1.50e-07 |  8.55e-07 | -1.49e-05 |
    |  339 | 198 | 164 | 201 |    4.335 |    1.973 |   -2.463 |   5.686 |  1.80e-05 |  3.23e-06 | -3.08e-05 |
    |  340 | 124 | 170 | 179 |    6.670 |   -0.175 |    0.124 |   6.763 |  3.23e-05 | -1.05e-05 |  1.55e-06 |
    |  341 | 179 |  71 | 200 |    6.639 |   -0.117 |    0.158 |   6.703 |  3.21e-05 | -1.01e-05 |  1.97e-06 |
    |  342 |  24 | 198 | 201 |   -0.555 |    0.536 |   -0.550 |   1.342 | -3.44e-06 |  3.38e-06 | -6.88e-06 |
    +------+-----+-----+-----+----------+----------+----------+---------+-----------+-----------+-----------+
