
    -------------------------------------------------------------
    -------------- Model input ----------------------------------
    -------------------------------------------------------------

    Model parameters:

    +-------------+----------+
    | Parameter   |    Value |
    |-------------+----------|
    | w [m]       |      0.3 |
    | h [m]       |      0.1 |
    | a [m]       |     0.05 |
    | b [m]       |    0.025 |
    | E [Pa]      | 2.08e+09 |
    | v [-]       |      0.5 |
    | t [-]       |     0.15 |
    +-------------+----------+

    Model boundary conditions:

    +----------+----------------+
    |   Marker |   Displacement |
    |----------+----------------|
    |       80 |              0 |
    +----------+----------------+

    Loads:

    +----------+-----------+------------+
    |   Marker |   qx[N/m] |   qy [N/m] |
    |----------+-----------+------------|
    |       50 |     1e+05 |          0 |
    +----------+-----------+------------+

    -------------------------------------------------------------
    -------------- Results --------------------------------------
    -------------------------------------------------------------

    Model info:

    +---------------------+-----+
    | Max element size:   | 0.5 |
    | Dofs per node:      |   2 |
    | Element type:       |   3 |
    | Number of dofs:     |  96 |
    | Number of elements: |  35 |
    | Number of nodes:    |  48 |
    +---------------------+-----+

    Summary of results:

    +----------------------+-----------+------+
    | Max displacement:    |   0.00012 | [m]  |
    | Min displacement:    | -1.23e-05 | [m]  |
    | Max reaction force:  |  1.21e+03 | [N]  |
    | Min reaction force:  | -4.49e+03 | [N]  |
    | Sum reaction forces: |    -1e+04 | [N]  |
    | Max vonMises:        |  1.42e+06 | [Pa] |
    | Min vonMises:        |  3.85e+05 | [Pa] |
    +----------------------+-----------+------+

    Results per node:

    +-----+-------+-------+-----------+------------+--------+----------+-----------+-----------+
    |   N |   dof |   dof |   x_coord |    y_coord |    a_x |      a_y |       R_x |       R_y |
    |     |     x |     y |       [m] |        [m] |   [mm] |     [mm] |      [kN] |      [kN] |
    |-----+-------+-------+-----------+------------+--------+----------+-----------+-----------|
    |   1 |     1 |     2 |         0 |          0 |      0 |        0 |     -2.76 |     -1.25 |
    |   2 |     3 |     4 |     0.125 |          0 | 0.0304 |  0.00741 |  3.41e-16 |  9.09e-16 |
    |   3 |     5 |     6 |     0.125 |      0.025 | 0.0398 |  0.00472 |  2.96e-15 |  2.05e-15 |
    |   4 |     7 |     8 |     0.175 |      0.025 | 0.0766 |  0.00272 | -6.31e-15 |  2.27e-16 |
    |   5 |     9 | 1e+01 |     0.175 |          0 | 0.0869 |  0.00506 | -2.26e-15 | -1.14e-15 |
    |   6 | 1e+01 | 1e+01 |       0.3 |          0 |  0.119 |  0.00392 |         0 |  1.36e-15 |
    |   7 | 1e+01 | 1e+01 |       0.3 |        0.1 |   0.12 |  -0.0119 | -1.36e-15 | -1.82e-15 |
    |   8 | 2e+01 | 2e+01 |     0.175 |        0.1 | 0.0879 | -0.00927 |  8.81e-16 | -2.05e-15 |
    |   9 | 2e+01 | 2e+01 |     0.175 |      0.075 | 0.0781 | -0.00644 | -1.14e-15 |  9.09e-16 |
    |  10 | 2e+01 | 2e+01 |     0.125 |      0.075 | 0.0406 | -0.00513 | -5.97e-16 | -4.55e-16 |
    |  11 | 2e+01 | 2e+01 |     0.125 |        0.1 | 0.0306 | -0.00701 |  5.68e-17 |  1.25e-15 |
    |  12 | 2e+01 | 2e+01 |         0 |        0.1 |      0 |        0 |     -2.76 |      1.21 |
    |  13 | 2e+01 | 3e+01 |    0.0625 |          0 | 0.0181 |   0.0101 | -1.17e-15 |  9.09e-16 |
    |  14 | 3e+01 | 3e+01 |     0.125 |     0.0125 | 0.0321 |  0.00648 |  1.99e-16 | -9.09e-16 |
    |  15 | 3e+01 | 3e+01 |      0.15 |      0.025 | 0.0576 |  0.00573 |  3.78e-15 |  9.09e-16 |
    |  16 | 3e+01 | 3e+01 |     0.175 |     0.0125 | 0.0861 |  0.00381 |  7.96e-16 | -3.41e-15 |
    |  17 | 3e+01 | 3e+01 |    0.2375 |          0 | 0.0986 |  0.00641 | -1.31e-15 | -9.09e-16 |
    |  18 | 4e+01 | 4e+01 |       0.3 |       0.05 |   0.12 | -0.00416 | -1.82e-14 | -1.82e-15 |
    |  19 | 4e+01 | 4e+01 |    0.2375 |        0.1 |  0.101 |  -0.0123 |  8.53e-16 | -4.55e-15 |
    |  20 | 4e+01 | 4e+01 |     0.175 |     0.0875 | 0.0865 | -0.00817 | -9.09e-16 | -2.27e-15 |
    |  21 | 4e+01 | 4e+01 |      0.15 |      0.075 | 0.0594 | -0.00806 | -1.65e-15 | -9.09e-16 |
    |  22 | 4e+01 | 4e+01 |     0.125 |     0.0875 | 0.0315 | -0.00591 | -1.14e-16 | -4.55e-16 |
    |  23 | 4e+01 | 5e+01 |    0.0625 |        0.1 | 0.0183 |  -0.0103 |  1.14e-15 |         0 |
    |  24 | 5e+01 | 5e+01 |         0 |       0.05 |      0 |        0 |     -4.49 |    0.0409 |
    |  25 | 5e+01 | 5e+01 |    0.1431 |    0.05828 | 0.0545 | -0.00239 |  1.15e-14 | -1.14e-16 |
    |  26 | 5e+01 | 5e+01 |    0.1178 |    0.06406 | 0.0411 | -0.00338 |  1.82e-15 |  1.65e-15 |
    |  27 | 5e+01 | 5e+01 |    0.1568 |    0.04156 | 0.0629 | 0.000487 |   1.8e-14 |  1.14e-15 |
    |  28 | 6e+01 | 6e+01 |    0.1073 |    0.08007 | 0.0321 | -0.00662 | -6.82e-16 | -1.82e-15 |
    |  29 | 6e+01 | 6e+01 |    0.1988 |    0.01563 | 0.0882 |  0.00466 |  5.12e-15 |   2.5e-15 |
    |  30 | 6e+01 | 6e+01 |    0.1971 |    0.07444 | 0.0861 | -0.00846 | -7.05e-15 |  6.37e-15 |
    |  31 | 6e+01 | 6e+01 |   0.09488 |    0.02665 | 0.0293 |  0.00616 | -3.41e-15 | -1.82e-15 |
    |  32 | 6e+01 | 6e+01 |    0.1291 |    0.04361 | 0.0472 | 0.000392 | -9.41e-15 | -3.41e-15 |
    |  33 | 6e+01 | 7e+01 |    0.1121 |    0.03821 | 0.0386 |  0.00286 |  6.54e-16 | -2.16e-15 |
    |  34 | 7e+01 | 7e+01 |    0.1626 |     0.0605 | 0.0666 | -0.00313 | -1.99e-15 | -3.41e-15 |
    |  35 | 7e+01 | 7e+01 |    0.1779 |    0.06412 | 0.0748 | -0.00472 | -1.59e-15 | -2.73e-15 |
    |  36 | 7e+01 | 7e+01 |     0.143 |    0.04762 | 0.0549 | 5.74e-05 | -1.06e-14 |  1.19e-15 |
    |  37 | 7e+01 | 7e+01 |   0.07696 |    0.04467 | 0.0236 |  0.00131 |  2.39e-15 | -1.25e-15 |
    |  38 | 8e+01 | 8e+01 |   0.08792 |    0.06122 | 0.0278 | -0.00295 |  3.07e-15 | -5.68e-16 |
    |  39 | 8e+01 | 8e+01 |    0.0441 |    0.04448 | 0.0116 |  0.00081 |  4.55e-16 | -8.53e-17 |
    |  40 | 8e+01 | 8e+01 |    0.1611 |    0.05312 | 0.0651 | -0.00188 |  4.12e-15 | -5.34e-15 |
    |  41 | 8e+01 | 8e+01 |    0.1831 |    0.04737 | 0.0754 | -0.00157 | -1.02e-14 | -1.82e-15 |
    |  42 | 8e+01 | 8e+01 |    0.2112 |    0.05597 | 0.0886 | -0.00422 |  1.21e-14 | -3.47e-15 |
    |  43 | 8e+01 | 9e+01 |    0.2255 |    0.03205 | 0.0947 |   0.0013 |  1.19e-14 |  1.39e-14 |
    |  44 | 9e+01 | 9e+01 |    0.2532 |    0.04383 |  0.104 | -0.00192 | -1.82e-15 |  6.25e-15 |
    |  45 | 9e+01 | 9e+01 |    0.2325 |    0.06314 | 0.0974 | -0.00555 |  1.91e-14 | -6.82e-16 |
    |  46 | 9e+01 | 9e+01 |    0.1708 |    0.03719 | 0.0702 | 0.000301 | -2.22e-14 |   3.3e-15 |
    |  47 | 9e+01 | 9e+01 |    0.1964 |    0.02884 |  0.084 |  0.00278 |  2.84e-16 |  1.36e-15 |
    |  48 | 1e+02 | 1e+02 |    0.2682 |    0.06126 |   0.11 | -0.00547 |  2.23e-14 |  6.37e-15 |
    +-----+-------+-------+-----------+------------+--------+----------+-----------+-----------+

    Results per element:

    +------+-------+-------+-------+-------+----------+----------+----------+---------+----------+----------+----------+
    |   El |     N |     N |     N |     N |   sig_xx |   sig_yy |   tau_xy |   vMise |   eps_xx |   eps_yy |   eps_xy |
    |   Nb |     1 |     2 |     3 |     4 |    [MPa] |    [MPa] |    [MPa] |   [MPa] |      [-] |      [-] |      [-] |
    |------+-------+-------+-------+-------+----------+----------+----------+---------+----------+----------+----------|
    |    1 | 2e+01 | 1e+01 | 3e+01 | 2e+01 |     1.39 |    0.208 |   -0.154 |    1.33 |  0.00062 | -0.00023 | -0.00022 |
    |    2 | 2e+01 | 3e+01 | 4e+01 |     9 |     1.45 |     0.21 |    0.181 |    1.39 |  0.00065 | -0.00025 |  0.00026 |
    |    3 | 3e+01 | 3e+01 | 2e+01 | 4e+01 |    0.661 |  -0.0721 |  -0.0836 |   0.714 |  0.00033 | -0.00019 | -0.00012 |
    |    4 | 2e+01 | 4e+01 | 2e+01 | 1e+01 |    0.655 |    0.143 |  -0.0546 |   0.604 |  0.00028 | -8.9e-05 | -7.9e-05 |
    |    5 |     6 | 4e+01 | 4e+01 | 2e+01 |    0.663 |  -0.0339 |  -0.0189 |   0.681 |  0.00033 | -0.00018 | -2.7e-05 |
    |    6 | 4e+01 | 2e+01 | 3e+01 | 3e+01 |     1.21 |    0.196 | -0.00701 |    1.13 |  0.00054 |  -0.0002 |   -1e-05 |
    |    7 | 4e+01 | 5e+01 | 2e+01 | 4e+01 |    0.689 |  -0.0449 |   0.0158 |   0.713 |  0.00034 | -0.00019 |  2.3e-05 |
    |    8 | 4e+01 | 3e+01 | 3e+01 | 3e+01 |     0.97 | -0.00756 |  -0.0179 |   0.974 |  0.00047 | -0.00024 | -2.6e-05 |
    |    9 | 2e+01 | 4e+01 | 5e+01 | 3e+01 |    0.594 |  -0.0413 |  -0.0761 |    0.63 |   0.0003 | -0.00016 | -0.00011 |
    |   10 |     6 | 2e+01 | 5e+01 | 4e+01 |    0.673 |  -0.0105 | -0.00351 |   0.678 |  0.00033 | -0.00017 | -5.1e-06 |
    |   11 | 2e+01 | 4e+01 | 3e+01 | 2e+01 |     1.32 |    0.067 |   0.0303 |    1.29 |  0.00062 | -0.00029 |  4.4e-05 |
    |   12 | 2e+01 | 5e+01 | 2e+01 |     7 |    0.656 |  -0.0135 |   0.0115 |   0.663 |  0.00032 | -0.00016 |  1.7e-05 |
    |   13 | 3e+01 | 4e+01 | 2e+01 | 4e+01 |     1.31 |    0.222 |  -0.0522 |    1.22 |  0.00058 | -0.00021 | -7.5e-05 |
    |   14 | 3e+01 | 4e+01 | 4e+01 | 4e+01 |     1.13 |    0.172 |   0.0471 |    1.06 |   0.0005 | -0.00019 |  6.8e-05 |
    |   15 | 3e+01 | 5e+01 | 4e+01 | 4e+01 |     1.12 |     0.22 |  -0.0469 |    1.03 |  0.00048 | -0.00016 | -6.8e-05 |
    |   16 | 3e+01 | 3e+01 | 1e+01 |     3 |    0.801 |   0.0473 |    0.265 |   0.903 |  0.00037 | -0.00017 |  0.00038 |
    |   17 | 4e+01 | 4e+01 | 4e+01 | 4e+01 |    0.732 |  -0.0879 | -0.00433 |    0.78 |  0.00037 | -0.00022 | -6.2e-06 |
    |   18 | 3e+01 | 3e+01 | 4e+01 | 4e+01 |    0.836 |   -0.133 |   0.0279 |    0.91 |  0.00043 | -0.00026 |    4e-05 |
    |   19 | 3e+01 | 4e+01 | 4e+01 | 4e+01 |    0.936 |  -0.0165 |   0.0816 |   0.955 |  0.00045 | -0.00023 |  0.00012 |
    |   20 | 5e+01 | 4e+01 | 4e+01 | 4e+01 |    0.854 |  -0.0849 |  -0.0597 |   0.905 |  0.00043 | -0.00025 | -8.6e-05 |
    |   21 |     4 | 5e+01 | 4e+01 | 5e+01 |     1.01 |   0.0839 |   -0.132 |   0.998 |  0.00047 |  -0.0002 | -0.00019 |
    |   22 | 2e+01 | 3e+01 | 5e+01 |     4 |     0.64 |    0.087 |   -0.325 |   0.824 |  0.00029 | -0.00011 | -0.00047 |
    |   23 | 2e+01 |     5 | 2e+01 | 3e+01 |    0.364 |   0.0409 |   -0.098 |   0.385 |  0.00017 | -6.8e-05 | -0.00014 |
    |   24 | 2e+01 | 1e+01 | 2e+01 | 3e+01 |    0.366 |   0.0385 |   -0.117 |   0.403 |  0.00017 | -6.9e-05 | -0.00017 |
    |   25 | 1e+01 | 3e+01 | 1e+01 |     2 |    0.398 |  0.00985 |   0.0916 |   0.424 |  0.00019 | -9.1e-05 |  0.00013 |
    |   26 | 3e+01 |     3 | 2e+01 | 3e+01 |     1.33 |    0.182 |    0.181 |    1.28 |  0.00059 | -0.00023 |  0.00026 |
    |   27 | 2e+01 |     4 | 5e+01 | 3e+01 |     1.49 |    0.213 |   -0.145 |    1.42 |  0.00067 | -0.00026 | -0.00021 |
    |   28 | 2e+01 | 3e+01 | 2e+01 |     8 |    0.397 |   0.0403 |     0.12 |   0.432 |  0.00018 | -7.6e-05 |  0.00017 |
    |   29 | 2e+01 |     9 | 4e+01 | 3e+01 |    0.824 |   0.0804 |    0.313 |   0.955 |  0.00038 | -0.00016 |  0.00045 |
    |   30 | 2e+01 | 3e+01 | 3e+01 | 1e+01 |    0.759 |    0.123 |   -0.322 |   0.899 |  0.00034 | -0.00012 | -0.00046 |
    |   31 | 4e+01 | 1e+01 | 3e+01 | 4e+01 |    0.692 |  -0.0834 |   0.0288 |   0.739 |  0.00035 | -0.00021 |  4.2e-05 |
    |   32 | 3e+01 | 4e+01 | 3e+01 | 2e+01 |     1.22 |   0.0809 |   0.0285 |    1.19 |  0.00057 | -0.00026 |  4.1e-05 |
    |   33 | 2e+01 | 3e+01 | 4e+01 | 4e+01 |    0.673 |  -0.0705 |   0.0614 |   0.719 |  0.00034 |  -0.0002 |  8.9e-05 |
    |   34 | 2e+01 | 4e+01 | 4e+01 | 4e+01 |    0.738 |  -0.0696 | -0.00345 |   0.775 |  0.00037 | -0.00021 |   -5e-06 |
    |   35 |     1 | 1e+01 | 4e+01 | 2e+01 |    0.661 |    0.166 |    0.057 |   0.604 |  0.00028 | -7.9e-05 |  8.2e-05 |
    +------+-------+-------+-------+-------+----------+----------+----------+---------+----------+----------+----------+
