
    -------------------------------------------------------------
    -------------- Model input ----------------------------------
    -------------------------------------------------------------

    Model parameters:

    +-------------+----------+
    | Parameter   |    Value |
    |-------------+----------|
    | w [m]       |      0.3 |
    | h [m]       |      0.1 |
    | a [m]       |     0.05 |
    | b [m]       |    0.025 |
    | E [Pa]      | 2.08e+09 |
    | v [-]       |      0.5 |
    | t [-]       |     0.15 |
    +-------------+----------+

    Model boundary conditions:

    +----------+----------------+
    |   Marker |   Displacement |
    |----------+----------------|
    |       80 |              0 |
    +----------+----------------+

    Loads:

    +----------+-----------+------------+
    |   Marker |   qx[N/m] |   qy [N/m] |
    |----------+-----------+------------|
    |       50 |     1e+05 |          0 |
    +----------+-----------+------------+

    -------------------------------------------------------------
    -------------- Results --------------------------------------
    -------------------------------------------------------------

    Model info:

    +---------------------+-----+
    | Max element size:   | 0.5 |
    | Dofs per node:      |   2 |
    | Element type:       |   2 |
    | Number of dofs:     | 100 |
    | Number of elements: |  74 |
    | Number of nodes:    |  50 |
    +---------------------+-----+

    Summary of results:

    +----------------------+-----------+------+
    | Max displacement:    |   0.00012 | [m]  |
    | Min displacement:    | -1.47e-05 | [m]  |
    | Max reaction force:  |  1.54e+03 | [N]  |
    | Min reaction force:  | -4.74e+03 | [N]  |
    | Sum reaction forces: |    -1e+04 | [N]  |
    | Max vonMises:        |  1.55e+06 | [Pa] |
    | Min vonMises:        |  1.95e+05 | [Pa] |
    +----------------------+-----------+------+

    Results per node:

    +-----+-------+-------+-----------+------------+---------+-----------+-----------+-----------+
    |   N |   dof |   dof |   x_coord |    y_coord |     a_x |       a_y |       R_x |       R_y |
    |     |     x |     y |       [m] |        [m] |    [mm] |      [mm] |      [kN] |      [kN] |
    |-----+-------+-------+-----------+------------+---------+-----------+-----------+-----------|
    |   1 |     1 |     2 |         0 |          0 |       0 |         0 |     -2.63 |     -1.12 |
    |   2 |     3 |     4 |     0.125 |          0 |  0.0298 |   0.00606 |  7.96e-16 |         0 |
    |   3 |     5 |     6 |     0.125 |      0.025 |  0.0401 |   0.00416 |  1.19e-15 |  1.59e-15 |
    |   4 |     7 |     8 |     0.175 |      0.025 |  0.0751 |   0.00213 | -1.37e-14 |     5e-15 |
    |   5 |     9 | 1e+01 |     0.175 |          0 |  0.0845 |   0.00411 | -5.68e-17 | -1.59e-15 |
    |   6 | 1e+01 | 1e+01 |       0.3 |          0 |   0.117 |   0.00141 |  1.82e-15 | -1.36e-15 |
    |   7 | 1e+01 | 1e+01 |       0.3 |        0.1 |    0.12 |   -0.0147 | -9.09e-16 |  4.55e-16 |
    |   8 | 2e+01 | 2e+01 |     0.175 |        0.1 |  0.0878 |  -0.00983 |  1.53e-15 | -3.07e-15 |
    |   9 | 2e+01 | 2e+01 |     0.175 |      0.075 |   0.077 |  -0.00748 |  1.36e-15 |         0 |
    |  10 | 2e+01 | 2e+01 |     0.125 |      0.075 |  0.0408 |  -0.00614 |  2.06e-15 | -2.27e-16 |
    |  11 | 2e+01 | 2e+01 |     0.125 |        0.1 |  0.0309 |  -0.00822 | -2.42e-16 |         0 |
    |  12 | 2e+01 | 2e+01 |         0 |        0.1 |       0 |         0 |     -2.63 |      1.54 |
    |  13 | 2e+01 | 3e+01 |    0.0625 |          0 |   0.018 |   0.00933 |  2.84e-15 |  9.09e-16 |
    |  14 | 3e+01 | 3e+01 |     0.125 |     0.0125 |  0.0317 |   0.00521 |  2.56e-16 | -6.82e-16 |
    |  15 | 3e+01 | 3e+01 |      0.15 |      0.025 |  0.0571 |   0.00525 | -1.88e-15 |  3.18e-15 |
    |  16 | 3e+01 | 3e+01 |     0.175 |     0.0125 |  0.0831 |    0.0031 | -4.21e-15 | -1.59e-15 |
    |  17 | 3e+01 | 3e+01 |    0.2375 |          0 |  0.0968 |   0.00482 | -1.11e-14 |  3.64e-15 |
    |  18 | 4e+01 | 4e+01 |       0.3 |       0.05 |   0.118 |  -0.00681 |  1.82e-15 |  2.05e-15 |
    |  19 | 4e+01 | 4e+01 |    0.2375 |        0.1 |     0.1 |   -0.0138 |  8.75e-15 | -1.82e-15 |
    |  20 | 4e+01 | 4e+01 |     0.175 |     0.0875 |  0.0854 |  -0.00897 |  1.53e-15 |  3.18e-15 |
    |  21 | 4e+01 | 4e+01 |      0.15 |      0.075 |  0.0587 |  -0.00901 |  1.14e-16 |  2.27e-15 |
    |  22 | 4e+01 | 4e+01 |     0.125 |     0.0875 |  0.0326 |   -0.0074 |  6.82e-16 |  9.09e-16 |
    |  23 | 4e+01 | 5e+01 |    0.0625 |        0.1 |  0.0192 |   -0.0104 | -3.41e-16 |  9.09e-16 |
    |  24 | 5e+01 | 5e+01 |         0 |       0.05 |       0 |         0 |     -4.74 |    -0.422 |
    |  25 | 5e+01 | 5e+01 |    0.1368 |    0.05881 |  0.0506 |  -0.00287 | -1.26e-14 | -4.32e-15 |
    |  26 | 5e+01 | 5e+01 |    0.1178 |    0.06013 |  0.0409 |   -0.0034 |  5.12e-16 |  1.76e-15 |
    |  27 | 5e+01 | 5e+01 |    0.1625 |    0.04124 |  0.0652 | -0.000796 | -2.86e-14 | -6.25e-15 |
    |  28 | 6e+01 | 6e+01 |    0.1073 |    0.08007 |  0.0323 |  -0.00753 |  5.06e-15 | -2.73e-15 |
    |  29 | 6e+01 | 6e+01 |    0.1921 |    0.01781 |   0.084 |   0.00313 |  3.57e-14 |  3.64e-15 |
    |  30 | 6e+01 | 6e+01 |    0.1902 |    0.07906 |  0.0848 |  -0.00938 | -3.09e-14 | -4.09e-15 |
    |  31 | 6e+01 | 6e+01 |    0.1094 |    0.01875 |  0.0316 |   0.00565 |  4.77e-15 | -1.82e-15 |
    |  32 | 6e+01 | 6e+01 |    0.1291 |    0.04361 |  0.0466 |  -0.00024 |  8.75e-15 |  2.16e-15 |
    |  33 | 6e+01 | 7e+01 |    0.1114 |    0.04075 |  0.0377 |   0.00112 |  1.45e-15 |  2.73e-15 |
    |  34 | 7e+01 | 7e+01 |    0.1625 |    0.06043 |  0.0659 |  -0.00396 |  3.87e-15 |         0 |
    |  35 | 7e+01 | 7e+01 |    0.1788 |    0.06017 |  0.0743 |  -0.00485 | -1.36e-14 |  1.14e-15 |
    |  36 | 7e+01 | 7e+01 |    0.1459 |    0.04421 |  0.0557 |  0.000265 |  2.03e-14 |  1.99e-16 |
    |  37 | 7e+01 | 7e+01 |   0.08315 |    0.03532 |  0.0251 |   0.00289 |  1.88e-15 | -9.09e-16 |
    |  38 | 8e+01 | 8e+01 |   0.08792 |    0.06122 |  0.0275 |  -0.00367 | -1.59e-15 |  1.25e-15 |
    |  39 | 8e+01 | 8e+01 |   0.04632 |    0.05308 |  0.0117 |  -0.00108 |  4.55e-16 |  1.14e-16 |
    |  40 | 8e+01 | 8e+01 |    0.1723 |    0.04903 |  0.0702 |  -0.00234 |  2.13e-14 |  1.59e-15 |
    |  41 | 8e+01 | 8e+01 |    0.1851 |    0.04563 |  0.0762 |  -0.00222 | -2.41e-14 | -4.09e-15 |
    |  42 | 8e+01 | 8e+01 |    0.1966 |    0.05629 |  0.0817 |  -0.00495 |  3.52e-15 |  6.14e-15 |
    |  43 | 8e+01 | 9e+01 |    0.2087 |    0.03693 |  0.0869 | -0.000307 | -1.92e-14 | -8.64e-15 |
    |  44 | 9e+01 | 9e+01 |    0.2532 |    0.04383 |   0.103 |   -0.0041 |  7.96e-15 |  9.98e-15 |
    |  45 | 9e+01 | 9e+01 |    0.2267 |    0.06519 |  0.0946 |  -0.00747 | -1.14e-14 |     5e-15 |
    |  46 | 9e+01 | 9e+01 |    0.1762 |    0.03854 |  0.0726 | -0.000412 | -1.25e-14 | -1.99e-16 |
    |  47 | 9e+01 | 9e+01 |    0.1862 |    0.03183 |  0.0784 |  0.000538 | -1.05e-14 |  1.65e-15 |
    |  48 | 1e+02 | 1e+02 |   0.02721 |    0.02577 | 0.00613 |   0.00141 | -1.82e-15 |  6.25e-16 |
    |  49 | 1e+02 | 1e+02 |    0.1502 |    0.05642 |  0.0588 |  -0.00338 |  7.96e-15 | -3.07e-15 |
    |  50 | 1e+02 | 1e+02 |    0.2685 |    0.07337 |   0.109 |   -0.0098 | -1.27e-14 | -1.82e-15 |
    +-----+-------+-------+-----------+------------+---------+-----------+-----------+-----------+

    Results per element:

    +------+-----+-----+-----+----------+----------+----------+---------+----------+-----------+-----------+
    |   El |   N |   N |   N |   sig_xx |   sig_yy |   tau_xy |   vMise |   eps_xx |    eps_yy |    eps_xy |
    |   Nb |   1 |   2 |   3 |    [MPa] |    [MPa] |    [MPa] |   [MPa] |      [-] |       [-] |       [-] |
    |------+-----+-----+-----+----------+----------+----------+---------+----------+-----------+-----------|
    |    1 |   6 |  18 |  44 |    0.680 |   -0.001 |   -0.008 |   0.681 | 3.27e-04 | -1.64e-04 | -1.09e-05 |
    |    2 |   9 |  21 |  34 |    1.621 |    0.198 |    0.133 |   1.548 | 7.31e-04 | -2.94e-04 |  1.92e-04 |
    |    3 |  29 |  17 |  43 |    0.488 |   -0.085 |   -0.065 |   0.547 | 2.55e-04 | -1.58e-04 | -9.36e-05 |
    |    4 |   3 |  32 |  33 |    0.971 |    0.012 |    0.141 |   0.995 | 4.64e-04 | -2.28e-04 |  2.03e-04 |
    |    5 |  21 |  10 |  25 |    1.587 |    0.199 |   -0.137 |   1.516 | 7.15e-04 | -2.86e-04 | -1.98e-04 |
    |    6 |  31 |   3 |  33 |    0.973 |    0.061 |    0.153 |   0.980 | 4.53e-04 | -2.05e-04 |  2.20e-04 |
    |    7 |  19 |  30 |  45 |    0.576 |   -0.079 |    0.037 |   0.623 | 2.96e-04 | -1.77e-04 |  5.31e-05 |
    |    8 |  26 |  28 |  38 |    0.938 |    0.040 |   -0.138 |   0.949 | 4.41e-04 | -2.06e-04 | -1.98e-04 |
    |    9 |  25 |  10 |  26 |    1.106 |    0.154 |   -0.160 |   1.073 | 4.95e-04 | -1.92e-04 | -2.30e-04 |
    |   10 |  17 |   6 |  44 |    0.649 |   -0.058 |   -0.021 |   0.681 | 3.26e-04 | -1.84e-04 | -3.09e-05 |
    |   11 |   9 |  34 |  35 |    1.178 |    0.189 |    0.176 |   1.138 | 5.21e-04 | -1.92e-04 |  2.54e-04 |
    |   12 |  28 |  23 |  38 |    0.511 |   -0.129 |   -0.034 |   0.590 | 2.77e-04 | -1.85e-04 | -4.97e-05 |
    |   13 |  13 |  37 |  39 |    0.730 |   -0.033 |    0.004 |   0.747 | 3.59e-04 | -1.91e-04 |  6.05e-06 |
    |   14 |  43 |  44 |  45 |    0.673 |   -0.124 |   -0.002 |   0.742 | 3.53e-04 | -2.21e-04 | -3.42e-06 |
    |   15 |  34 |  27 |  40 |    1.100 |    0.207 |    0.007 |   1.013 | 4.79e-04 | -1.65e-04 |  1.08e-05 |
    |   16 |  27 |  34 |  49 |    1.347 |    0.331 |    0.031 |   1.217 | 5.68e-04 | -1.65e-04 |  4.43e-05 |
    |   17 |  36 |  27 |  49 |    1.251 |    0.085 |   -0.044 |   1.213 | 5.81e-04 | -2.60e-04 | -6.28e-05 |
    |   18 |  12 |  24 |  39 |    0.702 |    0.351 |   -0.016 |   0.608 | 2.53e-04 |  0.00e+00 | -2.32e-05 |
    |   19 |  23 |  12 |  39 |    0.659 |    0.037 |   -0.077 |   0.655 | 3.08e-04 | -1.41e-04 | -1.11e-04 |
    |   20 |  15 |  27 |  36 |    1.220 |    0.020 |   -0.043 |   1.213 | 5.82e-04 | -2.84e-04 | -6.17e-05 |
    |   21 |  45 |  44 |  50 |    0.687 |   -0.036 |    0.007 |   0.706 | 3.39e-04 | -1.82e-04 |  9.91e-06 |
    |   22 |  33 |  26 |  38 |    0.923 |   -0.024 |    0.013 |   0.935 | 4.49e-04 | -2.33e-04 |  1.92e-05 |
    |   23 |  43 |  17 |  44 |    0.741 |   -0.011 |   -0.031 |   0.748 | 3.59e-04 | -1.83e-04 | -4.49e-05 |
    |   24 |   7 |  19 |  50 |    0.643 |   -0.024 |    0.014 |   0.655 | 3.15e-04 | -1.66e-04 |  2.03e-05 |
    |   25 |  30 |  35 |  42 |    1.026 |    0.079 |    0.149 |   1.022 | 4.74e-04 | -2.09e-04 |  2.15e-04 |
    |   26 |  25 |  32 |  36 |    1.245 |    0.224 |    0.019 |   1.150 | 5.45e-04 | -1.92e-04 |  2.75e-05 |
    |   27 |  25 |  26 |  32 |    1.170 |    0.209 |    0.016 |   1.081 | 5.12e-04 | -1.81e-04 |  2.24e-05 |
    |   28 |  13 |  39 |  48 |    0.666 |   -0.009 |    0.058 |   0.677 | 3.22e-04 | -1.64e-04 |  8.37e-05 |
    |   29 |   1 |  13 |  48 |    0.657 |    0.115 |    0.057 |   0.616 | 2.88e-04 | -1.03e-04 |  8.25e-05 |
    |   30 |   8 |  20 |  30 |    0.082 |   -0.102 |    0.089 |   0.222 | 6.39e-05 | -6.87e-05 |  1.29e-04 |
    |   31 |   2 |  14 |  31 |    0.083 |   -0.100 |    0.066 |   0.195 | 6.40e-05 | -6.82e-05 |  9.46e-05 |
    |   32 |  22 |  11 |  28 |    0.133 |   -0.071 |   -0.073 |   0.219 | 8.09e-05 | -6.59e-05 | -1.06e-04 |
    |   33 |  16 |   5 |  29 |    0.121 |   -0.108 |   -0.057 |   0.221 | 8.41e-05 | -8.09e-05 | -8.20e-05 |
    |   34 |  19 |  45 |  50 |    0.683 |   -0.022 |    0.024 |   0.696 | 3.34e-04 | -1.75e-04 |  3.50e-05 |
    |   35 |  32 |  26 |  33 |    1.091 |    0.089 |   -0.028 |   1.050 | 5.03e-04 | -2.20e-04 | -4.04e-05 |
    |   36 |  29 |  43 |  47 |    0.930 |    0.084 |   -0.148 |   0.927 | 4.27e-04 | -1.83e-04 | -2.14e-04 |
    |   37 |  38 |  23 |  39 |    0.771 |   -0.008 |    0.005 |   0.775 | 3.72e-04 | -1.89e-04 |  6.66e-06 |
    |   38 |  31 |  33 |  37 |    0.821 |   -0.013 |    0.149 |   0.867 | 3.98e-04 | -2.04e-04 |  2.15e-04 |
    |   39 |  44 |  18 |  50 |    0.662 |   -0.033 |    0.001 |   0.679 | 3.26e-04 | -1.75e-04 |  1.75e-06 |
    |   40 |  21 |  25 |  49 |    1.272 |    0.004 |   -0.063 |   1.275 | 6.11e-04 | -3.04e-04 | -9.09e-05 |
    |   41 |  35 |  34 |  40 |    1.169 |    0.187 |    0.009 |   1.088 | 5.17e-04 | -1.91e-04 |  1.26e-05 |
    |   42 |  34 |  21 |  49 |    1.189 |   -0.034 |    0.037 |   1.208 | 5.80e-04 | -3.02e-04 |  5.28e-05 |
    |   43 |  18 |   7 |  50 |    0.669 |    0.008 |    0.005 |   0.665 | 3.20e-04 | -1.57e-04 |  6.66e-06 |
    |   44 |  24 |   1 |  48 |    0.625 |    0.312 |    0.036 |   0.545 | 2.25e-04 |  0.00e+00 |  5.18e-05 |
    |   45 |  40 |  27 |  46 |    1.223 |    0.222 |   -0.029 |   1.129 | 5.35e-04 | -1.87e-04 | -4.11e-05 |
    |   46 |  25 |  36 |  49 |    1.338 |    0.110 |   -0.035 |   1.288 | 6.17e-04 | -2.69e-04 | -5.05e-05 |
    |   47 |  35 |  40 |  41 |    1.087 |    0.128 |    0.029 |   1.030 | 4.92e-04 | -2.00e-04 |  4.16e-05 |
    |   48 |  41 |  40 |  46 |    0.977 |    0.072 |   -0.074 |   0.952 | 4.53e-04 | -2.00e-04 | -1.06e-04 |
    |   49 |  39 |  24 |  48 |    0.587 |    0.131 |    0.008 |   0.534 | 2.51e-04 | -7.84e-05 |  1.09e-05 |
    |   50 |   4 |  16 |  29 |    0.586 |    0.132 |   -0.429 |   0.915 | 2.50e-04 | -7.77e-05 | -6.19e-04 |
    |   51 |  10 |  22 |  28 |    0.682 |    0.132 |   -0.418 |   0.958 | 2.96e-04 | -1.00e-04 | -6.03e-04 |
    |   52 |  14 |   3 |  31 |    0.647 |    0.150 |    0.426 |   0.943 | 2.75e-04 | -8.35e-05 |  6.14e-04 |
    |   53 |  20 |   9 |  30 |    0.755 |    0.129 |    0.404 |   0.989 | 3.32e-04 | -1.19e-04 |  5.83e-04 |
    |   54 |  42 |  43 |  45 |    0.846 |   -0.090 |   -0.008 |   0.895 | 4.28e-04 | -2.47e-04 | -1.09e-05 |
    |   55 |  37 |  33 |  38 |    0.878 |   -0.083 |   -0.003 |   0.922 | 4.42e-04 | -2.51e-04 | -4.61e-06 |
    |   56 |  46 |   4 |  47 |    0.945 |    0.088 |   -0.174 |   0.953 | 4.33e-04 | -1.85e-04 | -2.51e-04 |
    |   57 |  43 |  41 |  47 |    0.852 |    0.012 |   -0.085 |   0.859 | 4.07e-04 | -1.99e-04 | -1.22e-04 |
    |   58 |  35 |  41 |  42 |    0.908 |    0.033 |    0.005 |   0.892 | 4.29e-04 | -2.03e-04 |  7.16e-06 |
    |   59 |  42 |  41 |  43 |    0.941 |   -0.042 |    0.008 |   0.963 | 4.62e-04 | -2.46e-04 |  1.14e-05 |
    |   60 |  41 |  46 |  47 |    1.106 |    0.131 |   -0.114 |   1.065 | 5.00e-04 | -2.03e-04 | -1.64e-04 |
    |   61 |   4 |  29 |  47 |    0.923 |    0.056 |   -0.166 |   0.941 | 4.30e-04 | -1.95e-04 | -2.40e-04 |
    |   62 |   5 |  17 |  29 |    0.455 |    0.090 |   -0.143 |   0.485 | 1.97e-04 | -6.60e-05 | -2.06e-04 |
    |   63 |  11 |  23 |  28 |    0.426 |    0.077 |   -0.139 |   0.461 | 1.86e-04 | -6.53e-05 | -2.00e-04 |
    |   64 |  13 |   2 |  31 |    0.431 |    0.080 |    0.139 |   0.465 | 1.88e-04 | -6.51e-05 |  2.01e-04 |
    |   65 |   3 |  15 |  32 |    1.537 |    0.256 |    0.166 |   1.454 | 6.77e-04 | -2.46e-04 |  2.39e-04 |
    |   66 |  15 |   4 |  27 |    1.617 |    0.234 |   -0.124 |   1.529 | 7.21e-04 | -2.76e-04 | -1.79e-04 |
    |   67 |  27 |   4 |  46 |    1.117 |    0.170 |   -0.163 |   1.081 | 4.96e-04 | -1.87e-04 | -2.35e-04 |
    |   68 |  19 |   8 |  30 |    0.454 |    0.087 |    0.158 |   0.499 | 1.98e-04 | -6.76e-05 |  2.27e-04 |
    |   69 |  30 |   9 |  35 |    0.935 |    0.060 |    0.151 |   0.943 | 4.35e-04 | -1.96e-04 |  2.18e-04 |
    |   70 |  26 |  10 |  28 |    0.902 |    0.044 |   -0.130 |   0.909 | 4.23e-04 | -1.95e-04 | -1.88e-04 |
    |   71 |  13 |  31 |  37 |    0.511 |   -0.115 |    0.023 |   0.578 | 2.73e-04 | -1.78e-04 |  3.33e-05 |
    |   72 |  32 |  15 |  36 |    1.157 |    0.056 |    0.058 |   1.135 | 5.43e-04 | -2.51e-04 |  8.42e-05 |
    |   73 |  30 |  42 |  45 |    0.717 |   -0.059 |    0.145 |   0.790 | 3.59e-04 | -2.01e-04 |  2.10e-04 |
    |   74 |  37 |  38 |  39 |    0.690 |   -0.177 |    0.006 |   0.794 | 3.74e-04 | -2.51e-04 |  9.22e-06 |
    +------+-----+-----+-----+----------+----------+----------+---------+----------+-----------+-----------+
