
    -------------------------------------------------------------
    -------------- Model input ----------------------------------
    -------------------------------------------------------------

    Model parameters:

    +-------------+----------+
    | Parameter   |    Value |
    |-------------+----------|
    | w [m]       |      0.3 |
    | h [m]       |      0.1 |
    | a [m]       |     0.05 |
    | b [m]       |    0.025 |
    | E [Pa]      | 2.08e+11 |
    | v [-]       |      0.3 |
    | t [-]       |     0.01 |
    +-------------+----------+

    Model boundary conditions:

    +----------+----------------+
    |   Marker |   Displacement |
    |----------+----------------|
    |       80 |              0 |
    +----------+----------------+

    Loads:

    +----------+-----------+------------+
    |   Marker |   qx[N/m] |   qy [N/m] |
    |----------+-----------+------------|
    |       50 |     1e+05 |          0 |
    +----------+-----------+------------+

    -------------------------------------------------------------
    -------------- Results --------------------------------------
    -------------------------------------------------------------

    Model info:

    +---------------------+------+
    | Max element size:   | 0.05 |
    | Dofs per node:      |    2 |
    | Element type:       |    3 |
    | Number of dofs:     |  410 |
    | Number of elements: |  172 |
    | Number of nodes:    |  205 |
    +---------------------+------+

    Summary of results:

    +----------------------+-----------+------+
    | Max displacement:    |  1.25e-05 | [m]  |
    | Min displacement:    | -6.79e-07 | [m]  |
    | Max reaction force:  |       293 | [N]  |
    | Min reaction force:  | -1.24e+03 | [N]  |
    | Sum reaction forces: |    -1e+04 | [N]  |
    | Max vonMises:        |  1.63e+07 | [Pa] |
    | Min vonMises:        |  2.66e+05 | [Pa] |
    +----------------------+-----------+------+

    Results per node:

    +-----+-------+-------+-----------+------------+----------+-----------+-----------+-----------+
    |   N |   dof |   dof |   x_coord |    y_coord |      a_x |       a_y |       R_x |       R_y |
    |     |     x |     y |       [m] |        [m] |     [mm] |      [mm] |      [kN] |      [kN] |
    |-----+-------+-------+-----------+------------+----------+-----------+-----------+-----------|
    |   1 |     1 |     2 |         0 |          0 |        0 |         0 |    -0.845 |    -0.294 |
    |   2 |     3 |     4 |     0.125 |          0 |  0.00271 | -5.57e-06 |  2.27e-16 | -5.12e-16 |
    |   3 |     5 |     6 |     0.125 |      0.025 |  0.00427 |  0.000114 |  -5.2e-15 | -1.07e-15 |
    |   4 |     7 |     8 |     0.175 |      0.025 |   0.0081 |  7.35e-05 | -7.28e-15 | -9.09e-16 |
    |   5 |     9 | 1e+01 |     0.175 |          0 |  0.00972 | -5.44e-05 | -3.07e-15 | -1.93e-15 |
    |   6 | 1e+01 | 1e+01 |       0.3 |          0 |   0.0124 |  0.000442 | -1.25e-15 |  8.24e-16 |
    |   7 | 1e+01 | 1e+01 |       0.3 |        0.1 |   0.0125 | -0.000522 | -1.82e-15 | -6.82e-16 |
    |   8 | 2e+01 | 2e+01 |     0.175 |        0.1 |  0.00973 |  1.83e-06 | -1.71e-15 |  5.12e-16 |
    |   9 | 2e+01 | 2e+01 |     0.175 |      0.075 |  0.00814 | -0.000129 | -8.87e-15 | -5.68e-17 |
    |  10 | 2e+01 | 2e+01 |     0.125 |      0.075 |  0.00427 | -8.09e-05 | -5.51e-15 | -1.99e-16 |
    |  11 | 2e+01 | 2e+01 |     0.125 |        0.1 |  0.00268 |  1.18e-05 | -2.27e-16 | -8.53e-17 |
    |  12 | 2e+01 | 2e+01 |         0 |        0.1 |        0 |         0 |    -0.845 |     0.293 |
    |  13 | 2e+01 | 3e+01 |   0.01563 |          0 | 0.000575 |  0.000315 | -5.68e-17 | -1.14e-16 |
    |  14 | 3e+01 | 3e+01 |   0.03125 |          0 |  0.00105 |  0.000443 | -9.66e-16 |  2.27e-16 |
    |  15 | 3e+01 | 3e+01 |   0.04688 |          0 |  0.00151 |  0.000527 | -6.54e-16 |  5.68e-17 |
    |  16 | 3e+01 | 3e+01 |    0.0625 |          0 |  0.00195 |  0.000594 |  6.25e-16 | -2.27e-16 |
    |  17 | 3e+01 | 3e+01 |   0.07813 |          0 |  0.00234 |  0.000648 | -1.71e-15 |  9.09e-16 |
    |  18 | 4e+01 | 4e+01 |   0.09375 |          0 |  0.00261 |  0.000672 | -1.25e-15 | -1.14e-16 |
    |  19 | 4e+01 | 4e+01 |    0.1094 |          0 |  0.00273 |  0.000489 | -1.02e-15 |  1.42e-16 |
    |  20 | 4e+01 | 4e+01 |     0.125 |     0.0125 |  0.00316 | -3.39e-05 | -3.18e-15 |  9.09e-16 |
    |  21 | 4e+01 | 4e+01 |    0.1375 |      0.025 |  0.00537 |  0.000303 |  2.98e-16 |  4.55e-16 |
    |  22 | 4e+01 | 4e+01 |      0.15 |      0.025 |  0.00621 |  0.000369 |  6.38e-15 |  6.82e-16 |
    |  23 | 4e+01 | 5e+01 |    0.1625 |      0.025 |  0.00704 |  0.000324 |  3.41e-16 |  5.68e-16 |
    |  24 | 5e+01 | 5e+01 |     0.175 |     0.0125 |  0.00926 | -0.000111 | -5.17e-15 | -2.61e-15 |
    |  25 | 5e+01 | 5e+01 |    0.1906 |          0 |   0.0097 |  0.000473 |  5.46e-15 | -3.64e-15 |
    |  26 | 5e+01 | 5e+01 |    0.2062 |          0 |  0.00978 |  0.000631 | -3.64e-15 |         0 |
    |  27 | 5e+01 | 5e+01 |    0.2219 |          0 |   0.0101 |  0.000622 |  6.37e-15 |  4.55e-16 |
    |  28 | 6e+01 | 6e+01 |    0.2375 |          0 |   0.0105 |   0.00056 | -8.33e-15 |  1.25e-15 |
    |  29 | 6e+01 | 6e+01 |    0.2531 |          0 |   0.0109 |  0.000512 |   1.7e-15 |  1.82e-15 |
    |  30 | 6e+01 | 6e+01 |    0.2687 |          0 |   0.0114 |  0.000478 | -9.78e-15 | -6.82e-16 |
    |  31 | 6e+01 | 6e+01 |    0.2844 |          0 |   0.0119 |  0.000457 |  9.79e-15 | -2.27e-16 |
    |  32 | 6e+01 | 6e+01 |       0.3 |     0.0125 |   0.0124 |  0.000322 | -1.55e-14 | -1.93e-15 |
    |  33 | 6e+01 | 7e+01 |       0.3 |      0.025 |   0.0125 |  0.000202 |  7.05e-15 |  3.01e-15 |
    |  34 | 7e+01 | 7e+01 |       0.3 |     0.0375 |   0.0125 |  8.18e-05 | -6.14e-15 |  -1.5e-15 |
    |  35 | 7e+01 | 7e+01 |       0.3 |       0.05 |   0.0125 | -4.03e-05 |  1.05e-14 |  4.26e-16 |
    |  36 | 7e+01 | 7e+01 |       0.3 |     0.0625 |   0.0125 | -0.000162 |  1.82e-15 | -7.39e-16 |
    |  37 | 7e+01 | 7e+01 |       0.3 |      0.075 |   0.0125 | -0.000283 |  6.82e-16 |  1.36e-15 |
    |  38 | 8e+01 | 8e+01 |       0.3 |     0.0875 |   0.0125 | -0.000402 |  -2.5e-15 | -3.41e-16 |
    |  39 | 8e+01 | 8e+01 |    0.2844 |        0.1 |   0.0119 | -0.000532 |  5.92e-15 |  1.14e-15 |
    |  40 | 8e+01 | 8e+01 |    0.2687 |        0.1 |   0.0114 | -0.000548 | -4.09e-15 | -5.68e-16 |
    |  41 | 8e+01 | 8e+01 |    0.2531 |        0.1 |    0.011 | -0.000577 | -1.71e-16 | -3.41e-16 |
    |  42 | 8e+01 | 8e+01 |    0.2375 |        0.1 |   0.0105 | -0.000621 |  4.08e-15 | -1.93e-15 |
    |  43 | 8e+01 | 9e+01 |    0.2219 |        0.1 |   0.0101 | -0.000671 |  4.72e-15 |  2.27e-15 |
    |  44 | 9e+01 | 9e+01 |    0.2062 |        0.1 |   0.0098 | -0.000679 | -3.01e-15 | -1.59e-15 |
    |  45 | 9e+01 | 9e+01 |    0.1906 |        0.1 |  0.00971 | -0.000524 |  1.23e-14 |   2.5e-15 |
    |  46 | 9e+01 | 9e+01 |     0.175 |     0.0875 |  0.00927 |  5.13e-05 |  8.53e-15 | -3.75e-15 |
    |  47 | 9e+01 | 9e+01 |    0.1625 |      0.075 |  0.00706 | -0.000319 | -1.19e-15 |  1.14e-15 |
    |  48 | 1e+02 | 1e+02 |      0.15 |      0.075 |  0.00621 |  -0.00038 |  7.55e-15 |  2.27e-16 |
    |  49 | 1e+02 | 1e+02 |    0.1375 |      0.075 |  0.00537 | -0.000332 |  1.71e-16 |  6.82e-16 |
    |  50 | 1e+02 | 1e+02 |     0.125 |     0.0875 |  0.00316 |  4.25e-05 | -2.33e-15 |  3.41e-16 |
    |  51 | 1e+02 | 1e+02 |    0.1094 |        0.1 |  0.00271 | -0.000494 |   4.6e-15 |         0 |
    |  52 | 1e+02 | 1e+02 |   0.09375 |        0.1 |  0.00262 | -0.000663 |  1.08e-15 |  3.41e-16 |
    |  53 | 1e+02 | 1e+02 |   0.07812 |        0.1 |  0.00235 |  -0.00065 |  -2.5e-15 |  2.27e-16 |
    |  54 | 1e+02 | 1e+02 |    0.0625 |        0.1 |  0.00195 | -0.000592 | -8.24e-16 | -2.84e-16 |
    |  55 | 1e+02 | 1e+02 |   0.04687 |        0.1 |  0.00151 | -0.000527 |  2.56e-16 | -3.41e-16 |
    |  56 | 1e+02 | 1e+02 |   0.03125 |        0.1 |  0.00105 | -0.000445 | -2.56e-16 |  6.82e-16 |
    |  57 | 1e+02 | 1e+02 |   0.01562 |        0.1 | 0.000575 | -0.000315 | -2.27e-16 |  3.41e-16 |
    |  58 | 1e+02 | 1e+02 |         0 |     0.0875 |        0 |         0 |     -1.24 |     0.152 |
    |  59 | 1e+02 | 1e+02 |         0 |      0.075 |        0 |         0 |     -1.17 |     0.109 |
    |  60 | 1e+02 | 1e+02 |         0 |     0.0625 |        0 |         0 |     -1.16 |    0.0535 |
    |  61 | 1e+02 | 1e+02 |         0 |       0.05 |        0 |         0 |     -1.16 |  -0.00121 |
    |  62 | 1e+02 | 1e+02 |         0 |     0.0375 |        0 |         0 |     -1.16 |   -0.0506 |
    |  63 | 1e+02 | 1e+02 |         0 |      0.025 |        0 |         0 |     -1.17 |    -0.106 |
    |  64 | 1e+02 | 1e+02 |         0 |     0.0125 |        0 |         0 |     -1.24 |    -0.156 |
    |  65 | 1e+02 | 1e+02 |    0.2888 |    0.04352 |   0.0121 |  2.66e-05 |  7.45e-15 | -6.79e-15 |
    |  66 | 1e+02 | 1e+02 |   0.01182 |    0.05115 | 0.000332 | -3.67e-06 | -4.26e-16 | -9.59e-17 |
    |  67 | 1e+02 | 1e+02 |   0.07393 |    0.01484 |  0.00228 |  0.000511 |  -5.4e-15 |  2.27e-16 |
    |  68 | 1e+02 | 1e+02 |    0.2259 |     0.0879 |   0.0102 | -0.000558 | -1.33e-14 | -1.82e-15 |
    |  69 | 1e+02 | 1e+02 |    0.2439 |     0.0156 |   0.0107 |  0.000393 | -9.78e-15 |  1.19e-15 |
    |  70 | 1e+02 | 1e+02 |   0.05998 |    0.08414 |  0.00186 | -0.000438 |  4.77e-15 |  1.14e-15 |
    |  71 | 1e+02 | 1e+02 |    0.2163 |    0.01306 |  0.00988 |  0.000531 |  1.46e-14 |  2.16e-15 |
    |  72 | 1e+02 | 1e+02 |   0.09174 |    0.08797 |  0.00272 |  -0.00059 | -2.96e-15 | -6.82e-16 |
    |  73 | 1e+02 | 1e+02 |    0.2562 |     0.0881 |   0.0111 | -0.000457 | -2.34e-14 |  -2.5e-15 |
    |  74 | 1e+02 | 1e+02 |   0.04259 |    0.01323 |  0.00133 |  0.000385 |  5.68e-17 | -5.68e-16 |
    |  75 | 1e+02 | 2e+02 |    0.1307 |    0.06624 |  0.00498 | -8.22e-05 |  4.15e-15 | -9.09e-16 |
    |  76 | 2e+02 | 2e+02 |     0.118 |    0.07029 |  0.00418 | -0.000212 |  1.14e-15 | -2.39e-15 |
    |  77 | 2e+02 | 2e+02 |    0.1654 |    0.06225 |  0.00717 | -7.99e-05 |  3.35e-15 |  7.96e-16 |
    |  78 | 2e+02 | 2e+02 |    0.1794 |     0.0666 |  0.00797 | -0.000154 |  -4.6e-14 | -4.04e-15 |
    |  79 | 2e+02 | 2e+02 |    0.2875 |    0.06365 |   0.0121 | -0.000175 |  1.46e-14 |  1.65e-15 |
    |  80 | 2e+02 | 2e+02 |   0.01112 |    0.03074 | 0.000314 |  6.51e-05 |  2.27e-16 | -4.62e-17 |
    |  81 | 2e+02 | 2e+02 |    0.1454 |    0.03505 |  0.00591 |  0.000182 | -1.13e-14 | -6.82e-16 |
    |  82 | 2e+02 | 2e+02 |     0.272 |    0.01273 |   0.0115 |   0.00035 | -6.15e-15 |  6.82e-16 |
    |  83 | 2e+02 | 2e+02 |    0.1018 |     0.0159 |  0.00304 |  0.000535 | -8.24e-15 |  3.41e-16 |
    |  84 | 2e+02 | 2e+02 |   0.02825 |    0.08795 | 0.000886 | -0.000316 | -4.33e-16 | -9.38e-16 |
    |  85 | 2e+02 | 2e+02 |    0.1685 |    0.03796 |  0.00731 |  4.62e-05 | -6.34e-15 |  6.82e-16 |
    |  86 | 2e+02 | 2e+02 |    0.1845 |    0.03255 |  0.00826 |  0.000192 | -1.84e-14 |  7.05e-15 |
    |  87 | 2e+02 | 2e+02 |    0.1256 |    0.05814 |  0.00483 | -4.17e-05 |  1.11e-15 | -4.41e-16 |
    |  88 | 2e+02 | 2e+02 |    0.1104 |    0.05347 |   0.0041 | -5.38e-05 |  2.22e-15 | -5.54e-16 |
    |  89 | 2e+02 | 2e+02 |    0.1065 |    0.06556 |  0.00376 | -0.000261 |  9.93e-15 |  1.31e-15 |
    |  90 | 2e+02 | 2e+02 |   0.09972 |    0.04995 |  0.00359 | -2.16e-06 |  2.07e-15 | -3.84e-16 |
    |  91 | 2e+02 | 2e+02 |     0.189 |    0.02579 |  0.00869 |  0.000323 | -1.35e-14 | -4.77e-15 |
    |  92 | 2e+02 | 2e+02 |    0.1959 |    0.03932 |  0.00867 |  0.000165 |  1.21e-14 |  3.58e-15 |
    |  93 | 2e+02 | 2e+02 |     0.198 |    0.08503 |  0.00939 | -0.000557 | -2.46e-14 |  2.73e-15 |
    |  94 | 2e+02 | 2e+02 |    0.1146 |    0.04156 |  0.00426 |  0.000105 | -5.12e-16 |  1.25e-15 |
    |  95 | 2e+02 | 2e+02 |   0.09699 |    0.03505 |  0.00335 |  0.000283 |  2.33e-15 |  1.14e-16 |
    |  96 | 2e+02 | 2e+02 |   0.08199 |    0.04437 |  0.00278 |  0.000102 | -1.42e-15 | -5.68e-16 |
    |  97 | 2e+02 | 2e+02 |   0.06888 |    0.05025 |  0.00226 | -7.41e-06 |   2.1e-15 | -7.67e-16 |
    |  98 | 2e+02 | 2e+02 |   0.06422 |    0.04097 |  0.00207 |  0.000136 | -5.37e-15 | -2.84e-16 |
    |  99 | 2e+02 | 2e+02 |   0.05337 |    0.05509 |  0.00168 | -6.73e-05 |   2.9e-15 | -2.84e-16 |
    | 100 | 2e+02 | 2e+02 |   0.05315 |    0.04039 |  0.00168 |  0.000125 |  2.23e-15 | -9.66e-16 |
    | 101 | 2e+02 | 2e+02 |   0.03766 |    0.05236 |  0.00114 | -2.32e-05 |  9.52e-16 |  5.68e-17 |
    | 102 | 2e+02 | 2e+02 |   0.03834 |    0.03967 |  0.00117 |  0.000104 | -3.31e-15 | -1.14e-16 |
    | 103 | 2e+02 | 2e+02 |    0.1154 |    0.08152 |  0.00352 | -0.000372 |  1.27e-14 |  3.41e-16 |
    | 104 | 2e+02 | 2e+02 |    0.1401 |     0.0557 |  0.00562 | -5.44e-05 |  8.67e-16 |  9.66e-16 |
    | 105 | 2e+02 | 2e+02 |   0.07417 |    0.06286 |  0.00243 | -0.000216 |  1.14e-15 |  4.55e-16 |
    | 106 | 2e+02 | 2e+02 |    0.1737 |    0.05167 |  0.00751 | -2.93e-05 |  6.82e-16 |  1.05e-15 |
    | 107 | 2e+02 | 2e+02 |      0.16 |    0.05471 |  0.00679 | -3.97e-05 | -1.49e-14 |  1.45e-15 |
    | 108 | 2e+02 | 2e+02 |   0.04677 |    0.06418 |  0.00145 | -0.000167 |  -3.2e-16 |  2.84e-17 |
    | 109 | 2e+02 | 2e+02 |   0.03737 |    0.06396 |  0.00113 | -0.000138 |  4.09e-15 |  4.55e-16 |
    | 110 | 2e+02 | 2e+02 |   0.05529 |    0.02763 |  0.00173 |  0.000289 |  1.09e-15 |   8.1e-16 |
    | 111 | 2e+02 | 2e+02 |    0.1868 |    0.05591 |  0.00818 | -0.000101 |  6.71e-15 |  -8.3e-15 |
    | 112 | 2e+02 | 2e+02 |    0.1936 |    0.06383 |  0.00862 | -0.000247 |  1.45e-14 | -4.55e-16 |
    | 113 | 2e+02 | 2e+02 |    0.2007 |    0.05271 |  0.00884 | -7.29e-05 | -2.13e-14 | -4.55e-16 |
    | 114 | 2e+02 | 2e+02 |    0.2026 |    0.06359 |  0.00902 | -0.000272 | -1.51e-15 |  1.14e-16 |
    | 115 | 2e+02 | 2e+02 |    0.2141 |    0.05131 |  0.00944 | -4.92e-05 |  1.74e-14 | -2.84e-16 |
    | 116 | 2e+02 | 2e+02 |    0.2155 |    0.06356 |  0.00957 | -0.000268 |   7.9e-15 | -4.55e-16 |
    | 117 | 2e+02 | 2e+02 |    0.2285 |    0.05016 |     0.01 | -2.95e-05 | -1.24e-14 |  2.98e-15 |
    | 118 | 2e+02 | 2e+02 |    0.2298 |    0.06325 |   0.0101 | -0.000236 |  2.23e-15 | -3.87e-15 |
    | 119 | 2e+02 | 2e+02 |    0.2455 |     0.0475 |   0.0107 |  2.74e-06 | -4.32e-15 | -1.71e-16 |
    | 120 | 2e+02 | 2e+02 |    0.2248 |    0.03635 |  0.00993 |  0.000198 |  2.85e-14 | -2.84e-17 |
    | 121 | 2e+02 | 2e+02 |    0.2451 |    0.06302 |   0.0107 | -0.000204 | -7.67e-15 |  2.19e-15 |
    | 122 | 2e+02 | 2e+02 |    0.2619 |      0.051 |   0.0112 | -4.59e-05 | -3.41e-15 | -2.39e-15 |
    | 123 | 2e+02 | 2e+02 |     0.253 |    0.03848 |   0.0109 |  0.000111 | -1.02e-14 |  1.36e-15 |
    | 124 | 2e+02 | 2e+02 |    0.2631 |    0.03884 |   0.0113 |  9.35e-05 |  1.99e-14 | -1.02e-15 |
    | 125 | 2e+02 | 2e+02 |    0.2601 |    0.06344 |   0.0112 | -0.000189 |  1.61e-14 | -2.73e-15 |
    | 126 | 3e+02 | 3e+02 |    0.2616 |    0.02675 |   0.0112 |  0.000228 | -2.04e-14 | -3.41e-16 |
    | 127 | 3e+02 | 3e+02 |   0.08484 |    0.02735 |  0.00275 |  0.000393 | -1.25e-15 |  1.14e-15 |
    | 128 | 3e+02 | 3e+02 |    0.1973 |    0.02602 |  0.00901 |  0.000381 |  1.82e-15 | -2.73e-15 |
    | 129 | 3e+02 | 3e+02 |    0.2144 |    0.07521 |  0.00967 | -0.000452 | -8.98e-15 | -3.18e-15 |
    | 130 | 3e+02 | 3e+02 |    0.1287 |     0.0445 |    0.005 |  3.05e-05 |  3.34e-15 | -1.99e-16 |
    | 131 | 3e+02 | 3e+02 |    0.2435 |     0.0758 |   0.0106 | -0.000364 |  2.47e-15 | -1.19e-15 |
    | 132 | 3e+02 | 3e+02 |   0.03929 |    0.07502 |   0.0012 | -0.000255 | -5.12e-16 | -6.82e-16 |
    | 133 | 3e+02 | 3e+02 |   0.02442 |    0.05171 | 0.000714 | -1.19e-05 | -4.97e-16 | -3.91e-16 |
    | 134 | 3e+02 | 3e+02 |   0.07713 |    0.08713 |  0.00236 | -0.000543 | -1.99e-15 | -1.36e-15 |
    | 135 | 3e+02 | 3e+02 |   0.06657 |      0.075 |   0.0021 | -0.000362 |  7.55e-15 |  1.36e-15 |
    | 136 | 3e+02 | 3e+02 |    0.2315 |     0.0188 |   0.0103 |   0.00041 |  1.37e-14 | -1.36e-15 |
    | 137 | 3e+02 | 3e+02 |    0.2756 |    0.05184 |   0.0117 | -5.55e-05 |  1.45e-14 | -5.68e-17 |
    | 138 | 3e+02 | 3e+02 |    0.2113 |    0.03814 |  0.00938 |  0.000193 |  1.79e-15 |  1.02e-15 |
    | 139 | 3e+02 | 3e+02 |    0.2747 |    0.02512 |   0.0116 |  0.000224 | -2.84e-14 | -3.41e-16 |
    | 140 | 3e+02 | 3e+02 |    0.2711 |    0.08809 |   0.0115 |  -0.00043 |  9.56e-16 | -2.61e-15 |
    | 141 | 3e+02 | 3e+02 |    0.0274 |    0.01227 | 0.000857 |  0.000306 | -1.14e-16 | -3.41e-16 |
    | 142 | 3e+02 | 3e+02 |   0.08659 |    0.01732 |  0.00268 |  0.000527 | -5.97e-15 | -4.55e-16 |
    | 143 | 3e+02 | 3e+02 |    0.1053 |    0.08887 |  0.00298 | -0.000534 | -1.82e-15 | -2.27e-16 |
    | 144 | 3e+02 | 3e+02 |   0.09085 |    0.07539 |  0.00293 | -0.000444 |  1.22e-14 |  3.64e-15 |
    | 145 | 3e+02 | 3e+02 |    0.2577 |    0.01377 |   0.0111 |  0.000369 |  5.91e-14 | -2.96e-15 |
    | 146 | 3e+02 | 3e+02 |    0.1394 |     0.0655 |  0.00551 |  -0.00016 | -1.51e-14 | -2.39e-15 |
    | 147 | 3e+02 | 3e+02 |    0.1574 |    0.03588 |  0.00668 |  0.000152 |  8.24e-15 | -4.55e-15 |
    | 148 | 3e+02 | 3e+02 |    0.1535 |    0.04595 |  0.00641 |   3.9e-05 | -3.32e-15 |  3.15e-15 |
    | 149 | 3e+02 | 3e+02 |    0.1511 |    0.06467 |  0.00628 | -0.000198 |   1.7e-14 |  9.09e-16 |
    | 150 | 3e+02 | 3e+02 |    0.1153 |    0.02066 |  0.00361 |  0.000344 |  1.86e-14 | -1.14e-16 |
    | 151 | 3e+02 | 3e+02 |    0.1092 |    0.02557 |  0.00362 |   0.00038 |  5.03e-15 |         0 |
    | 152 | 3e+02 | 3e+02 |    0.1868 |    0.08065 |  0.00893 | -0.000411 |  1.88e-14 |  1.14e-15 |
    | 153 | 3e+02 | 3e+02 |    0.2876 |    0.02422 |   0.0121 |  0.000219 |  4.08e-15 | -5.12e-16 |
    | 154 | 3e+02 | 3e+02 |   0.01283 |    0.07573 | 0.000368 | -0.000101 |  3.98e-16 | -3.55e-16 |
    | 155 | 3e+02 | 3e+02 |    0.2867 |    0.07572 |    0.012 | -0.000295 | -1.69e-14 | -4.09e-15 |
    | 156 | 3e+02 | 3e+02 |   0.01153 |    0.03918 | 0.000324 |  3.74e-05 | -3.13e-16 |  1.96e-16 |
    | 157 | 3e+02 | 3e+02 |    0.0119 |    0.01998 | 0.000345 |  0.000111 | -2.42e-16 |  1.14e-16 |
    | 158 | 3e+02 | 3e+02 |    0.2881 |     0.0518 |   0.0121 | -5.63e-05 |  5.01e-15 | -2.22e-15 |
    | 159 | 3e+02 | 3e+02 |   0.01226 |    0.06337 | 0.000346 |  -4.8e-05 | -1.28e-16 | -1.85e-16 |
    | 160 | 3e+02 | 3e+02 |    0.2203 |    0.02284 |  0.00989 |  0.000407 | -2.73e-14 | -2.73e-15 |
    | 161 | 3e+02 | 3e+02 |    0.2885 |    0.03268 |   0.0121 |  0.000135 |     2e-14 |  4.23e-16 |
    | 162 | 3e+02 | 3e+02 |   0.05866 |    0.01404 |  0.00182 |   0.00045 |  2.39e-15 |         0 |
    | 163 | 3e+02 | 3e+02 |   0.07229 |    0.03111 |  0.00233 |  0.000303 |  2.49e-15 | -1.02e-15 |
    | 164 | 3e+02 | 3e+02 |    0.2374 |    0.03286 |   0.0104 |  0.000216 | -1.61e-14 | -4.32e-15 |
    | 165 | 3e+02 | 3e+02 |    0.1957 |    0.01476 |  0.00933 |  0.000493 |  1.46e-14 | -4.55e-16 |
    | 166 | 3e+02 | 3e+02 |   0.02417 |    0.03941 | 0.000708 |  7.21e-05 |  1.71e-16 | -2.84e-16 |
    | 167 | 3e+02 | 3e+02 |      0.12 |    0.03153 |  0.00434 |  0.000163 | -7.56e-15 | -1.14e-16 |
    | 168 | 3e+02 | 3e+02 |    0.2742 |     0.0638 |   0.0116 | -0.000182 |  -2.5e-14 |   5.2e-15 |
    | 169 | 3e+02 | 3e+02 |   0.02617 |    0.07577 | 0.000782 | -0.000194 |  1.42e-17 |  1.56e-16 |
    | 170 | 3e+02 | 3e+02 |    0.2016 |    0.07381 |  0.00918 | -0.000441 |  1.36e-14 |  6.82e-16 |
    | 171 | 3e+02 | 3e+02 |    0.2788 |     0.0384 |   0.0118 |  8.39e-05 | -4.22e-15 |  5.03e-15 |
    | 172 | 3e+02 | 3e+02 |    0.2727 |    0.07594 |   0.0116 | -0.000308 |  5.49e-14 |  2.16e-15 |
    | 173 | 3e+02 | 3e+02 |   0.09092 |    0.05924 |  0.00315 | -0.000178 | -3.58e-15 | -4.55e-16 |
    | 174 | 3e+02 | 3e+02 |   0.02502 |    0.06373 | 0.000735 | -9.72e-05 | -7.53e-16 |  3.41e-16 |
    | 175 | 3e+02 | 4e+02 |   0.03976 |    0.02651 |  0.00122 |  0.000243 |  3.55e-15 | -6.25e-16 |
    | 176 | 4e+02 | 4e+02 |   0.02214 |    0.02575 | 0.000651 |  0.000156 |  1.26e-15 |  6.54e-16 |
    | 177 | 4e+02 | 4e+02 |    0.2111 |    0.08722 |  0.00976 | -0.000597 |  2.35e-14 |  1.82e-15 |
    | 178 | 4e+02 | 4e+02 |    0.2582 |    0.07586 |   0.0111 | -0.000329 | -2.45e-14 | -3.41e-15 |
    | 179 | 4e+02 | 4e+02 |    0.1043 |    0.07745 |  0.00334 |  -0.00045 |  -1.2e-14 | -1.14e-16 |
    | 180 | 4e+02 | 4e+02 |    0.0768 |    0.07498 |  0.00244 |   -0.0004 | -7.21e-15 |  1.65e-15 |
    | 181 | 4e+02 | 4e+02 |    0.1517 |    0.05522 |   0.0063 |  -6.4e-05 | -2.22e-15 |  3.55e-17 |
    | 182 | 4e+02 | 4e+02 |    0.1637 |    0.04795 |  0.00699 |  8.57e-06 |  1.65e-14 | -5.68e-16 |
    | 183 | 4e+02 | 4e+02 |    0.2492 |    0.02904 |   0.0108 |  0.000231 | -7.39e-16 |  5.68e-15 |
    | 184 | 4e+02 | 4e+02 |    0.2408 |    0.08798 |   0.0106 | -0.000501 | -3.36e-14 |         0 |
    | 185 | 4e+02 | 4e+02 |   0.04319 |    0.08693 |  0.00135 |  -0.00039 | -2.33e-15 |  9.09e-16 |
    | 186 | 4e+02 | 4e+02 |    0.1328 |    0.03409 |  0.00509 |  8.25e-05 | -2.64e-15 |  2.61e-15 |
    | 187 | 4e+02 | 4e+02 |    0.2285 |    0.07559 |   0.0102 | -0.000412 |   1.4e-14 |  9.09e-16 |
    | 188 | 4e+02 | 4e+02 |     0.179 |    0.04195 |  0.00781 |  4.13e-05 |  7.13e-15 |  2.34e-16 |
    | 189 | 4e+02 | 4e+02 |    0.0619 |    0.06698 |  0.00197 | -0.000243 | -3.21e-15 |  3.41e-16 |
    | 190 | 4e+02 | 4e+02 |   0.09494 |    0.02105 |  0.00299 |  0.000488 |   5.8e-15 | -1.36e-15 |
    | 191 | 4e+02 | 4e+02 |    0.1129 |    0.01237 |  0.00314 |  0.000427 | -5.43e-15 |  4.55e-16 |
    | 192 | 4e+02 | 4e+02 |    0.2856 |    0.08784 |    0.012 | -0.000414 |  -1.9e-15 |  3.64e-15 |
    | 193 | 4e+02 | 4e+02 |   0.01352 |    0.01167 | 0.000408 |  0.000175 |  2.84e-16 |  2.84e-17 |
    | 194 | 4e+02 | 4e+02 |    0.1837 |    0.08851 |   0.0093 |  -0.00034 | -3.36e-14 | -3.07e-15 |
    | 195 | 4e+02 | 4e+02 |     0.286 |    0.01238 |    0.012 |  0.000336 |  1.37e-14 | -1.08e-14 |
    | 196 | 4e+02 | 4e+02 |   0.01415 |    0.08782 | 0.000426 | -0.000179 | -7.25e-16 |  5.68e-16 |
    | 197 | 4e+02 | 4e+02 |    0.1869 |    0.04567 |  0.00818 |  3.47e-05 |  1.08e-14 |  4.83e-15 |
    | 198 | 4e+02 | 4e+02 |    0.1144 |    0.08945 |  0.00306 | -0.000361 | -1.53e-15 |  2.84e-15 |
    | 199 | 4e+02 | 4e+02 |    0.2088 |    0.02533 |  0.00945 |  0.000406 | -1.77e-14 |  1.82e-15 |
    | 200 | 4e+02 | 4e+02 |    0.1419 |    0.04544 |  0.00572 |  3.14e-05 |  2.22e-15 | -2.84e-15 |
    | 201 | 4e+02 | 4e+02 |    0.1832 |    0.01128 |   0.0093 |  0.000273 |  3.41e-16 |   5.8e-15 |
    | 202 | 4e+02 | 4e+02 |     0.186 |    0.01868 |  0.00894 |  0.000354 |  1.13e-14 |  1.82e-15 |
    | 203 | 4e+02 | 4e+02 |    0.1904 |    0.07081 |  0.00865 | -0.000341 |  1.11e-14 |  1.21e-14 |
    | 204 | 4e+02 | 4e+02 |   0.05129 |    0.07186 |   0.0016 |  -0.00027 | -2.96e-15 |  4.55e-16 |
    | 205 | 4e+02 | 4e+02 |     0.207 |    0.01295 |  0.00964 |   0.00055 |         0 | -1.82e-15 |
    +-----+-------+-------+-----------+------------+----------+-----------+-----------+-----------+

    Results per element:

    +------+-------+-------+-------+-------+----------+-----------+----------+---------+----------+----------+----------+
    |   El |     N |     N |     N |     N |   sig_xx |    sig_yy |   tau_xy |   vMise |   eps_xx |   eps_yy |   eps_xy |
    |   Nb |     1 |     2 |     3 |     4 |    [MPa] |     [MPa] |    [MPa] |   [MPa] |      [-] |      [-] |      [-] |
    |------+-------+-------+-------+-------+----------+-----------+----------+---------+----------+----------+----------|
    |    1 | 1e+02 | 1e+02 | 2e+02 | 7e+01 |     6.56 |    -0.222 |   -0.297 |    6.69 |  3.2e-05 | -1.1e-05 | -3.7e-06 |
    |    2 | 9e+01 | 1e+02 | 1e+02 | 1e+02 |     9.07 |     -1.05 |   -0.304 |    9.65 |  4.5e-05 | -1.8e-05 | -3.8e-06 |
    |    3 | 2e+02 | 1e+02 | 2e+02 | 7e+01 |     6.54 |    -0.473 |    0.623 |    6.88 |  3.2e-05 | -1.2e-05 |  7.8e-06 |
    |    4 | 7e+01 | 2e+02 | 1e+02 | 2e+02 |     6.55 |     -0.19 |    0.301 |    6.67 |  3.2e-05 |   -1e-05 |  3.8e-06 |
    |    5 | 1e+02 | 1e+02 | 2e+02 | 7e+01 |     6.64 |    -0.618 |    0.975 |    7.17 |  3.3e-05 | -1.3e-05 |  1.2e-05 |
    |    6 | 2e+02 | 1e+02 | 2e+02 | 1e+02 |     6.89 |    -0.711 |   -0.804 |    7.41 |  3.4e-05 | -1.3e-05 |   -1e-05 |
    |    7 | 2e+02 | 1e+02 | 2e+02 | 6e+01 |      6.7 |     -0.13 | -0.00937 |    6.76 |  3.2e-05 |   -1e-05 | -1.2e-07 |
    |    8 | 1e+02 | 2e+02 | 9e+01 | 8e+01 |     8.55 |    -0.114 |    -2.21 |    9.42 |  4.1e-05 | -1.3e-05 | -2.8e-05 |
    |    9 | 2e+02 | 1e+02 | 7e+01 | 2e+02 |     6.58 |     0.897 |   0.0901 |    6.18 |    3e-05 | -5.2e-06 |  1.1e-06 |
    |   10 | 8e+01 | 1e+02 | 1e+02 | 1e+02 |      6.6 |    -0.112 |   -0.135 |    6.66 |  3.2e-05 |   -1e-05 | -1.7e-06 |
    |   11 | 2e+02 | 1e+02 | 2e+02 | 1e+02 |     7.57 |     -1.01 |    -1.01 |    8.31 |  3.8e-05 | -1.6e-05 | -1.3e-05 |
    |   12 | 2e+02 | 1e+02 | 2e+02 | 9e+01 |     6.11 |    -0.531 |     1.68 |    7.02 |    3e-05 | -1.1e-05 |  2.1e-05 |
    |   13 | 2e+02 | 1e+02 | 2e+02 | 8e+01 |     6.63 |    0.0561 |   -0.227 |    6.61 |  3.2e-05 | -9.3e-06 | -2.8e-06 |
    |   14 | 9e+01 | 1e+02 | 1e+02 | 2e+02 |     10.1 |     -0.27 |   -0.178 |    10.2 |  4.9e-05 | -1.6e-05 | -2.2e-06 |
    |   15 | 2e+02 | 2e+02 | 1e+02 | 9e+01 |     11.4 |      1.88 |    0.942 |    10.7 |  5.2e-05 | -7.4e-06 |  1.2e-05 |
    |   16 | 2e+02 | 2e+02 | 1e+02 | 1e+02 |     10.8 |       1.1 |  -0.0972 |    10.3 |    5e-05 |   -1e-05 | -1.2e-06 |
    |   17 | 2e+02 | 2e+02 | 2e+02 | 8e+01 |     6.67 |    -0.101 |   0.0548 |    6.72 |  3.2e-05 |   -1e-05 |  6.9e-07 |
    |   18 | 2e+02 | 7e+01 | 2e+02 | 1e+02 |     6.49 |    -0.206 |    0.343 |    6.62 |  3.1e-05 |   -1e-05 |  4.3e-06 |
    |   19 | 2e+01 | 3e+01 | 2e+02 | 2e+02 |      2.8 |    0.0433 |    -1.09 |    3.36 |  1.3e-05 | -3.8e-06 | -1.4e-05 |
    |   20 | 1e+02 | 2e+02 | 2e+02 | 1e+02 |     7.49 |    -0.951 |    -1.08 |    8.22 |  3.7e-05 | -1.5e-05 | -1.4e-05 |
    |   21 | 5e+01 | 5e+01 | 1e+02 | 7e+01 |     4.45 |    -0.117 |   -0.698 |    4.67 |  2.2e-05 |   -7e-06 | -8.7e-06 |
    |   22 | 2e+02 | 1e+02 | 1e+02 | 1e+02 |     6.81 |     0.287 |   0.0729 |    6.67 |  3.2e-05 | -8.4e-06 |  9.1e-07 |
    |   23 | 2e+02 | 2e+02 | 9e+01 | 2e+02 |     6.74 |     -0.34 |     2.18 |    7.88 |  3.3e-05 | -1.1e-05 |  2.7e-05 |
    |   24 | 1e+02 | 1e+02 | 1e+02 | 1e+02 |     6.93 |     -0.52 |    0.104 |     7.2 |  3.4e-05 | -1.2e-05 |  1.3e-06 |
    |   25 | 1e+02 | 7e+01 | 2e+02 | 2e+02 |     6.59 |    -0.109 |    0.148 |    6.65 |  3.2e-05 |   -1e-05 |  1.9e-06 |
    |   26 | 1e+02 | 1e+02 | 1e+02 | 1e+02 |     7.06 |    -0.306 |   0.0427 |    7.22 |  3.4e-05 | -1.2e-05 |  5.3e-07 |
    |   27 | 1e+02 | 4e+01 | 4e+01 | 7e+01 |     6.55 |   -0.0257 |   0.0648 |    6.56 |  3.2e-05 | -9.6e-06 |  8.1e-07 |
    |   28 | 1e+02 | 1e+01 | 2e+01 | 7e+01 |     6.35 |  -0.00665 |   0.0571 |    6.35 |  3.1e-05 | -9.2e-06 |  7.1e-07 |
    |   29 | 7e+01 | 1e+02 | 5e+01 | 5e+01 |     2.61 |    0.0702 |   -0.908 |    3.01 |  1.2e-05 | -3.4e-06 | -1.1e-05 |
    |   30 | 1e+02 | 7e+01 | 3e+01 | 3e+01 |     6.32 |   -0.0663 |   -0.193 |    6.36 |    3e-05 | -9.4e-06 | -2.4e-06 |
    |   31 | 7e+01 | 1e+02 | 5e+01 | 5e+01 |      5.6 |    -0.106 |    -0.38 |    5.69 |  2.7e-05 | -8.6e-06 | -4.7e-06 |
    |   32 | 7e+01 | 1e+02 | 3e+01 | 3e+01 |     5.86 |    -0.158 |   -0.448 |    5.99 |  2.8e-05 | -9.2e-06 | -5.6e-06 |
    |   33 | 2e+02 | 1e+02 | 2e+02 | 1e+02 |     12.6 |      1.85 |    0.111 |    11.8 |  5.8e-05 | -9.3e-06 |  1.4e-06 |
    |   34 | 1e+02 | 1e+02 | 1e+02 | 1e+02 |     6.95 |    -0.416 |   -0.106 |    7.17 |  3.4e-05 | -1.2e-05 | -1.3e-06 |
    |   35 | 1e+02 | 1e+02 | 1e+02 | 1e+02 |     7.03 |    -0.166 |    -0.16 |    7.12 |  3.4e-05 | -1.1e-05 |   -2e-06 |
    |   36 | 1e+02 | 1e+02 | 1e+02 | 1e+02 |     7.34 |    -0.808 |      0.2 |    7.78 |  3.6e-05 | -1.4e-05 |  2.5e-06 |
    |   37 | 2e+02 | 1e+02 | 8e+01 | 1e+02 |     11.9 |      2.29 |    0.425 |    10.9 |  5.4e-05 | -6.1e-06 |  5.3e-06 |
    |   38 | 9e+01 | 1e+02 | 1e+02 | 8e+01 |     12.2 |      2.21 |    -1.29 |    11.5 |  5.5e-05 |   -7e-06 | -1.6e-05 |
    |   39 | 1e+02 | 1e+02 | 2e+02 | 1e+02 |     6.75 |    -0.256 |  -0.0334 |    6.89 |  3.3e-05 | -1.1e-05 | -4.2e-07 |
    |   40 | 5e+01 | 1e+02 | 1e+02 | 5e+01 |     13.8 |     0.286 |   -0.371 |    13.6 |  6.6e-05 | -1.8e-05 | -4.6e-06 |
    |   41 | 5e+01 | 1e+02 | 8e+01 | 5e+01 |     13.7 |     0.521 |    0.709 |    13.5 |  6.5e-05 | -1.7e-05 |  8.9e-06 |
    |   42 | 1e+02 | 2e+01 |     4 | 8e+01 |     15.5 |      1.52 |    -2.16 |    15.3 |  7.2e-05 | -1.5e-05 | -2.7e-05 |
    |   43 | 2e+01 | 1e+02 | 8e+01 | 2e+01 |     13.7 |     0.308 |   -0.289 |    13.6 |  6.6e-05 | -1.8e-05 | -3.6e-06 |
    |   44 | 1e+02 | 5e+01 | 1e+01 | 8e+01 |     16.5 |      1.62 |    -2.42 |    16.3 |  7.7e-05 | -1.6e-05 |   -3e-05 |
    |   45 | 1e+02 | 1e+02 | 1e+02 | 1e+02 |     7.43 |    -0.697 |   0.0731 |     7.8 |  3.7e-05 | -1.4e-05 |  9.1e-07 |
    |   46 | 3e+01 | 1e+02 | 2e+02 | 7e+01 |     5.82 |    -0.274 |   -0.839 |    6.14 |  2.8e-05 | -9.7e-06 |   -1e-05 |
    |   47 | 8e+01 | 1e+02 | 3e+01 | 3e+01 |     6.55 |    -0.034 |    -0.07 |    6.57 |  3.2e-05 | -9.6e-06 | -8.7e-07 |
    |   48 | 2e+02 | 2e+02 | 2e+02 | 1e+02 |     6.66 |      -0.1 |  -0.0496 |    6.71 |  3.2e-05 |   -1e-05 | -6.2e-07 |
    |   49 | 1e+02 | 1e+02 | 1e+02 | 1e+02 |     8.08 |     -1.16 |   -0.346 |    8.74 |  4.1e-05 | -1.7e-05 | -4.3e-06 |
    |   50 | 2e+02 | 1e+02 | 2e+02 | 7e+01 |     6.13 |    -0.494 |     1.15 |    6.69 |    3e-05 | -1.1e-05 |  1.4e-05 |
    |   51 | 7e+01 | 2e+01 | 2e+01 | 1e+02 |     4.71 |    -0.255 |     0.83 |    5.06 |  2.3e-05 |   -8e-06 |    1e-05 |
    |   52 | 2e+02 | 1e+02 | 2e+02 | 1e+02 |     7.05 |    -0.799 |   -0.698 |    7.57 |  3.5e-05 | -1.4e-05 | -8.7e-06 |
    |   53 | 2e+01 | 7e+01 | 2e+02 | 2e+01 |     5.63 |    -0.111 |    0.393 |    5.73 |  2.7e-05 | -8.7e-06 |  4.9e-06 |
    |   54 | 5e+01 | 8e+01 | 8e+01 |     9 |     14.8 |      2.75 |     2.51 |    14.3 |  6.7e-05 | -8.1e-06 |  3.1e-05 |
    |   55 | 9e+01 | 8e+01 | 1e+01 | 8e+01 |     11.8 |      3.11 |    -1.75 |      11 |  5.2e-05 |   -2e-06 | -2.2e-05 |
    |   56 | 2e+02 | 1e+02 | 2e+02 | 1e+02 |     12.9 |      1.85 |  0.00802 |      12 |  5.9e-05 | -9.7e-06 |    1e-07 |
    |   57 | 1e+02 | 1e+02 | 1e+02 | 1e+02 |     7.96 |     -1.13 |    0.394 |    8.61 |    4e-05 | -1.7e-05 |  4.9e-06 |
    |   58 | 2e+02 | 7e+01 | 2e+02 | 1e+02 |     6.34 |    -0.344 |    0.678 |    6.62 |  3.1e-05 | -1.1e-05 |  8.5e-06 |
    |   59 | 4e+01 | 9e+01 | 2e+02 | 4e+01 |     3.07 |   -0.0288 |     1.08 |     3.6 |  1.5e-05 | -4.6e-06 |  1.3e-05 |
    |   60 | 8e+01 | 1e+02 | 1e+02 | 8e+01 |     11.2 |      1.86 |    0.684 |    10.4 |  5.1e-05 | -7.2e-06 |  8.5e-06 |
    |   61 | 1e+02 | 1e+02 | 2e+02 | 1e+02 |     7.12 |    -0.642 |    0.407 |     7.5 |  3.5e-05 | -1.3e-05 |  5.1e-06 |
    |   62 | 7e+01 | 1e+02 | 2e+02 | 1e+02 |     6.35 |    -0.471 |   -0.782 |    6.74 |  3.1e-05 | -1.1e-05 | -9.8e-06 |
    |   63 | 1e+02 | 2e+02 | 1e+02 | 1e+02 |     7.37 |    -0.887 |   -0.308 |    7.87 |  3.7e-05 | -1.5e-05 | -3.9e-06 |
    |   64 | 9e+01 | 9e+01 | 1e+02 | 9e+01 |     9.96 |    -0.481 |    0.263 |    10.2 |  4.9e-05 | -1.7e-05 |  3.3e-06 |
    |   65 | 7e+01 | 2e+01 | 2e+01 | 2e+02 |     6.11 |   -0.0714 |    0.149 |    6.16 |    3e-05 | -9.2e-06 |  1.9e-06 |
    |   66 | 1e+02 | 1e+02 | 2e+02 | 1e+02 |     7.81 |    -0.992 |    0.356 |    8.37 |  3.9e-05 | -1.6e-05 |  4.4e-06 |
    |   67 | 1e+02 | 1e+02 | 1e+02 | 1e+02 |     8.82 |     -1.12 |    0.562 |    9.48 |  4.4e-05 | -1.8e-05 |    7e-06 |
    |   68 | 1e+02 | 1e+02 | 2e+02 | 1e+02 |     7.97 |      -1.1 |    0.832 |    8.69 |    4e-05 | -1.7e-05 |    1e-05 |
    |   69 | 1e+02 | 9e+01 | 9e+01 | 9e+01 |     10.8 |      1.37 |     0.11 |    10.2 |    5e-05 |   -9e-06 |  1.4e-06 |
    |   70 | 1e+02 | 2e+02 | 2e+02 | 9e+01 |     9.73 |    -0.133 |     1.34 |    10.1 |  4.7e-05 | -1.5e-05 |  1.7e-05 |
    |   71 | 9e+01 | 8e+01 | 9e+01 | 9e+01 |     10.5 |     0.555 |   -0.836 |    10.3 |  4.9e-05 | -1.2e-05 |   -1e-05 |
    |   72 | 1e+02 | 2e+02 | 2e+02 | 1e+02 |     6.95 |    -0.574 |   -0.278 |    7.27 |  3.4e-05 | -1.3e-05 | -3.5e-06 |
    |   73 | 9e+01 | 9e+01 | 1e+02 | 9e+01 |     9.44 |    -0.347 |    -1.43 |    9.93 |  4.6e-05 | -1.5e-05 | -1.8e-05 |
    |   74 | 8e+01 | 1e+01 | 5e+01 | 1e+02 |     6.96 |      2.48 |    -3.22 |    8.27 |    3e-05 |  1.9e-06 |   -4e-05 |
    |   75 | 5e+01 | 6e+01 | 2e+02 | 7e+01 |     6.14 |   -0.0698 |   -0.165 |    6.18 |    3e-05 | -9.2e-06 | -2.1e-06 |
    |   76 | 1e+02 | 1e+02 | 1e+02 | 1e+02 |     9.77 |    -0.654 |    0.669 |    10.2 |  4.8e-05 | -1.7e-05 |  8.4e-06 |
    |   77 | 1e+02 | 2e+02 | 1e+01 | 5e+01 |    0.639 |     0.302 |   -0.315 |   0.777 |  2.6e-06 |  5.3e-07 | -3.9e-06 |
    |   78 | 6e+01 | 8e+01 | 2e+02 | 6e+01 |     6.35 |      1.61 |    0.392 |    5.76 |  2.8e-05 | -1.4e-06 |  4.9e-06 |
    |   79 | 4e+01 | 4e+01 | 8e+01 | 2e+02 |     6.67 |   -0.0538 |  0.00854 |     6.7 |  3.2e-05 | -9.9e-06 |  1.1e-07 |
    |   80 | 2e+02 | 8e+01 | 2e+02 | 1e+02 |     12.9 |      2.18 |     1.02 |    12.1 |  5.9e-05 | -8.1e-06 |  1.3e-05 |
    |   81 | 3e+01 | 4e+01 | 2e+02 | 6e+01 |     6.67 |   -0.0517 | -0.00387 |     6.7 |  3.2e-05 | -9.9e-06 | -4.8e-08 |
    |   82 | 6e+01 | 2e+02 | 7e+01 | 6e+01 |     6.31 |      1.54 |    0.133 |     5.7 |  2.8e-05 | -1.7e-06 |  1.7e-06 |
    |   83 | 1e+02 | 1e+02 | 2e+02 | 1e+02 |     8.15 |     -1.18 |   -0.167 |     8.8 |  4.1e-05 | -1.7e-05 | -2.1e-06 |
    |   84 | 6e+01 | 7e+01 | 2e+02 | 6e+01 |     6.32 |      1.53 |   -0.155 |    5.72 |  2.8e-05 | -1.8e-06 | -1.9e-06 |
    |   85 | 4e+01 | 7e+01 | 2e+02 | 4e+01 |     5.68 |   -0.0829 |    0.364 |    5.76 |  2.7e-05 | -8.6e-06 |  4.6e-06 |
    |   86 | 2e+02 | 9e+01 | 2e+02 | 1e+02 |     8.29 |     -0.86 |    -1.41 |    9.09 |  4.1e-05 | -1.6e-05 | -1.8e-05 |
    |   87 | 4e+01 | 4e+01 | 2e+02 | 8e+01 |     6.67 |   -0.0332 |   0.0146 |    6.68 |  3.2e-05 | -9.8e-06 |  1.8e-07 |
    |   88 | 2e+01 | 2e+01 | 2e+02 | 8e+01 |     2.41 |     0.209 |      1.1 |       3 |  1.1e-05 | -2.5e-06 |  1.4e-05 |
    |   89 | 1e+02 | 2e+02 | 2e+02 | 2e+02 |     6.79 |     0.289 |    0.277 |    6.67 |  3.2e-05 | -8.4e-06 |  3.5e-06 |
    |   90 | 2e+02 | 8e+01 | 2e+02 | 2e+02 |     5.69 |     0.273 |     2.61 |    7.16 |  2.7e-05 | -6.9e-06 |  3.3e-05 |
    |   91 | 2e+01 | 8e+01 | 2e+02 | 2e+01 |     13.8 |     0.446 |      0.7 |    13.6 |  6.6e-05 | -1.8e-05 |  8.7e-06 |
    |   92 | 2e+02 | 1e+02 | 1e+02 | 2e+02 |     7.01 |    -0.475 |    -0.28 |    7.27 |  3.4e-05 | -1.2e-05 | -3.5e-06 |
    |   93 | 8e+01 | 1e+02 | 2e+02 | 1e+02 |     13.3 |      1.56 |     0.62 |    12.6 |  6.2e-05 | -1.2e-05 |  7.7e-06 |
    |   94 | 3e+01 | 7e+01 | 2e+02 | 3e+01 |     4.32 |    -0.123 |   -0.805 |     4.6 |  2.1e-05 | -6.8e-06 |   -1e-05 |
    |   95 | 3e+01 | 2e+02 | 2e+02 | 3e+01 |     6.66 |   -0.0248 |  -0.0138 |    6.68 |  3.2e-05 | -9.7e-06 | -1.7e-07 |
    |   96 | 6e+01 | 2e+02 | 2e+02 | 6e+01 |     6.37 |       1.5 |   -0.444 |    5.82 |  2.8e-05 |   -2e-06 | -5.6e-06 |
    |   97 | 1e+02 | 2e+02 | 8e+01 | 2e+02 |     6.69 |    -0.132 |   0.0273 |    6.76 |  3.2e-05 |   -1e-05 |  3.4e-07 |
    |   98 | 1e+02 | 1e+02 | 2e+02 | 1e+02 |     7.86 |    -0.986 |     1.31 |     8.7 |  3.9e-05 | -1.6e-05 |  1.6e-05 |
    |   99 | 1e+01 | 1e+02 | 2e+02 | 1e+01 |     6.55 |    0.0157 |    0.144 |    6.55 |  3.1e-05 | -9.4e-06 |  1.8e-06 |
    |  100 | 4e+01 | 1e+02 | 2e+02 | 4e+01 |     6.65 |   -0.0126 |   0.0145 |    6.65 |  3.2e-05 | -9.6e-06 |  1.8e-07 |
    |  101 | 3e+01 | 3e+01 | 2e+02 | 8e+01 |     6.65 |   -0.0143 |  -0.0146 |    6.65 |  3.2e-05 | -9.7e-06 | -1.8e-07 |
    |  102 | 6e+01 | 6e+01 | 2e+02 | 8e+01 |     6.55 |    0.0296 |   -0.146 |    6.54 |  3.1e-05 | -9.3e-06 | -1.8e-06 |
    |  103 | 7e+01 | 2e+02 | 2e+02 | 1e+02 |     6.61 |    -0.427 |   -0.533 |    6.89 |  3.2e-05 | -1.2e-05 | -6.7e-06 |
    |  104 | 4e+01 | 2e+02 | 2e+02 | 9e+01 |     3.18 |     0.401 |     1.71 |    4.22 |  1.5e-05 | -2.7e-06 |  2.1e-05 |
    |  105 | 1e+02 | 1e+02 | 2e+02 | 1e+02 |     6.94 |    -0.636 |    0.579 |    7.35 |  3.4e-05 | -1.3e-05 |  7.2e-06 |
    |  106 | 2e+02 | 1e+02 | 2e+02 | 7e+01 |     6.52 |    -0.183 |   -0.287 |    6.63 |  3.2e-05 |   -1e-05 | -3.6e-06 |
    |  107 | 2e+02 | 2e+02 | 2e+02 | 1e+02 |     6.64 |   -0.0534 |   0.0489 |    6.66 |  3.2e-05 | -9.8e-06 |  6.1e-07 |
    |  108 | 1e+02 | 8e+01 | 2e+02 | 2e+02 |     6.64 |   -0.0504 |  -0.0479 |    6.67 |  3.2e-05 | -9.8e-06 |   -6e-07 |
    |  109 | 9e+01 | 9e+01 | 2e+02 | 9e+01 |      9.4 |    -0.747 |    -0.61 |    9.85 |  4.6e-05 | -1.7e-05 | -7.6e-06 |
    |  110 | 1e+02 | 2e+02 | 2e+02 | 1e+02 |     6.78 |     0.227 |   -0.279 |    6.69 |  3.2e-05 | -8.7e-06 | -3.5e-06 |
    |  111 | 3e+01 | 6e+01 | 2e+02 | 2e+02 |     6.68 |   -0.0724 |  -0.0205 |    6.72 |  3.2e-05 |   -1e-05 | -2.6e-07 |
    |  112 | 2e+02 | 1e+02 | 2e+02 | 1e+02 |     4.76 |     0.631 |    -2.35 |    6.04 |  2.2e-05 | -3.8e-06 | -2.9e-05 |
    |  113 | 1e+02 | 1e+02 | 2e+02 | 1e+02 |     6.81 |     0.282 |   -0.131 |    6.68 |  3.2e-05 | -8.5e-06 | -1.6e-06 |
    |  114 | 1e+02 | 1e+02 | 2e+02 | 1e+02 |     6.76 |    -0.262 |   0.0621 |    6.89 |  3.3e-05 | -1.1e-05 |  7.8e-07 |
    |  115 | 2e+02 | 2e+02 |     3 | 2e+02 |     9.15 |     0.824 |     2.53 |     9.8 |  4.3e-05 | -9.2e-06 |  3.2e-05 |
    |  116 | 2e+01 |     2 | 2e+01 | 2e+02 |   0.0784 |     0.297 | -0.00493 |   0.266 | -5.1e-08 |  1.3e-06 | -6.2e-08 |
    |  117 | 4e+01 | 2e+02 | 4e+01 |     7 |     6.67 | -1.55e-05 | -0.00431 |    6.67 |  3.2e-05 | -9.6e-06 | -5.4e-08 |
    |  118 | 1e+01 | 2e+02 | 6e+01 |     1 |     7.38 |      1.31 |     1.01 |    7.04 |  3.4e-05 | -4.4e-06 |  1.3e-05 |
    |  119 | 4e+01 |     8 | 5e+01 | 2e+02 |   -0.178 |     0.205 |   -0.123 |   0.394 | -1.2e-06 |  1.2e-06 | -1.5e-06 |
    |  120 | 6e+01 | 1e+01 | 6e+01 | 2e+02 |     7.37 |      1.27 |       -1 |    7.04 |  3.4e-05 | -4.5e-06 | -1.3e-05 |
    |  121 | 3e+01 |     6 | 3e+01 | 2e+02 |     6.67 |  -1.7e-05 |  0.00429 |    6.67 |  3.2e-05 | -9.6e-06 |  5.4e-08 |
    |  122 | 9e+01 |     4 | 2e+02 | 9e+01 |     9.58 |     0.868 |    -2.05 |    9.84 |  4.5e-05 | -9.7e-06 | -2.6e-05 |
    |  123 | 1e+02 | 1e+02 | 2e+02 | 1e+02 |      6.7 |    -0.185 |    -0.11 |     6.8 |  3.2e-05 | -1.1e-05 | -1.4e-06 |
    |  124 | 7e+01 | 1e+02 | 2e+02 | 1e+02 |     5.69 |    -0.338 |    -1.84 |    6.67 |  2.8e-05 | -9.8e-06 | -2.3e-05 |
    |  125 | 8e+01 | 2e+02 | 2e+02 |     9 |     9.63 |     0.869 |     2.25 |      10 |  4.5e-05 | -9.7e-06 |  2.8e-05 |
    |  126 | 1e+02 | 7e+01 | 1e+02 | 2e+02 |     6.15 |    -0.558 |    -1.28 |    6.81 |    3e-05 | -1.2e-05 | -1.6e-05 |
    |  127 | 7e+01 | 2e+02 | 2e+02 | 1e+02 |     6.65 |    0.0783 |    0.255 |    6.63 |  3.2e-05 | -9.2e-06 |  3.2e-06 |
    |  128 | 1e+02 | 2e+02 | 2e+02 | 7e+01 |     6.58 |     0.883 |   -0.154 |     6.2 |    3e-05 | -5.3e-06 | -1.9e-06 |
    |  129 | 1e+02 | 9e+01 | 2e+02 | 1e+02 |      8.9 |     -1.28 |    0.243 |    9.62 |  4.5e-05 | -1.9e-05 |    3e-06 |
    |  130 | 1e+02 | 2e+02 | 1e+02 | 1e+02 |     6.92 |     -0.27 |    0.268 |    7.07 |  3.4e-05 | -1.1e-05 |  3.4e-06 |
    |  131 | 7e+01 | 4e+01 | 4e+01 | 2e+02 |     4.61 |    -0.115 |    0.694 |    4.82 |  2.2e-05 | -7.2e-06 |  8.7e-06 |
    |  132 | 1e+02 | 1e+02 | 1e+02 | 2e+02 |     6.78 |    -0.386 |    0.308 |       7 |  3.3e-05 | -1.2e-05 |  3.8e-06 |
    |  133 | 2e+01 | 8e+01 | 2e+02 | 1e+02 |     5.15 |    -0.267 |     1.28 |    5.74 |  2.5e-05 | -8.7e-06 |  1.6e-05 |
    |  134 | 2e+02 | 1e+02 | 2e+02 | 2e+02 |     6.82 |     0.614 |    0.549 |     6.6 |  3.2e-05 | -6.9e-06 |  6.9e-06 |
    |  135 | 2e+02 | 2e+02 | 2e+02 | 8e+01 |     6.78 |     0.561 |   -0.488 |    6.58 |  3.2e-05 | -7.1e-06 | -6.1e-06 |
    |  136 | 8e+01 | 2e+02 | 6e+01 | 6e+01 |     6.33 |   -0.0111 |  -0.0507 |    6.34 |    3e-05 | -9.2e-06 | -6.3e-07 |
    |  137 | 2e+02 | 8e+01 | 2e+02 | 2e+02 |     6.57 |     0.819 |    0.311 |    6.22 |    3e-05 | -5.5e-06 |  3.9e-06 |
    |  138 | 1e+02 | 2e+02 | 1e+02 | 1e+02 |     13.3 |      1.35 |   -0.419 |    12.7 |  6.2e-05 | -1.3e-05 | -5.2e-06 |
    |  139 | 7e+01 | 4e+01 | 4e+01 | 2e+02 |     6.27 |   -0.0454 |    0.168 |     6.3 |    3e-05 | -9.3e-06 |  2.1e-06 |
    |  140 | 1e+02 | 1e+02 | 8e+01 | 2e+02 |     12.5 |      1.78 |   -0.717 |    11.8 |  5.8e-05 | -9.5e-06 |   -9e-06 |
    |  141 | 2e+02 | 1e+02 | 7e+01 | 2e+02 |     6.76 |    -0.424 |   -0.469 |    7.03 |  3.3e-05 | -1.2e-05 | -5.9e-06 |
    |  142 | 2e+02 |     3 | 2e+01 | 2e+02 |     15.5 |      3.02 |      2.8 |      15 |    7e-05 | -7.8e-06 |  3.5e-05 |
    |  143 | 1e+02 | 2e+02 | 8e+01 | 2e+02 |     11.5 |       2.3 |   -0.368 |    10.5 |  5.2e-05 | -5.5e-06 | -4.6e-06 |
    |  144 | 9e+01 | 1e+02 | 2e+02 | 1e+02 |     11.9 |      2.16 |  -0.0958 |      11 |  5.4e-05 | -6.8e-06 | -1.2e-06 |
    |  145 | 1e+02 | 1e+02 | 1e+02 | 2e+02 |     6.98 |    -0.846 |     1.43 |    7.85 |  3.5e-05 | -1.4e-05 |  1.8e-05 |
    |  146 | 1e+02 | 2e+02 | 1e+02 | 1e+02 |      7.4 |    -0.846 |     -0.3 |    7.87 |  3.7e-05 | -1.5e-05 | -3.7e-06 |
    |  147 | 1e+02 | 1e+02 | 2e+02 | 1e+02 |     6.76 |    -0.332 |   -0.214 |    6.94 |  3.3e-05 | -1.1e-05 | -2.7e-06 |
    |  148 | 1e+02 | 1e+02 | 1e+02 | 2e+02 |     7.28 |    -0.878 |    0.952 |    7.93 |  3.6e-05 | -1.5e-05 |  1.2e-05 |
    |  149 | 1e+02 | 1e+02 | 2e+02 | 1e+02 |     6.83 |     -0.14 |    -0.25 |    6.92 |  3.3e-05 | -1.1e-05 | -3.1e-06 |
    |  150 | 1e+02 | 2e+02 | 2e+02 | 1e+02 |     8.88 |    -0.723 |      1.4 |    9.58 |  4.4e-05 | -1.6e-05 |  1.8e-05 |
    |  151 |     4 | 9e+01 | 2e+02 | 8e+01 |     11.2 |      2.57 |    -1.67 |    10.5 |    5e-05 | -3.7e-06 | -2.1e-05 |
    |  152 | 1e+02 | 1e+02 | 2e+02 | 8e+01 |     13.3 |      1.29 |  -0.0286 |    12.7 |  6.2e-05 | -1.3e-05 | -3.6e-07 |
    |  153 | 2e+02 | 2e+02 | 2e+02 | 7e+01 |     6.12 |    -0.568 |    -1.46 |     6.9 |    3e-05 | -1.2e-05 | -1.8e-05 |
    |  154 | 6e+01 | 2e+02 | 2e+02 | 8e+01 |     6.47 |      1.17 |    0.517 |    6.04 |  2.9e-05 | -3.7e-06 |  6.5e-06 |
    |  155 | 2e+02 | 9e+01 | 9e+01 | 2e+02 |     10.2 |     0.366 |   -0.752 |    10.1 |  4.9e-05 | -1.3e-05 | -9.4e-06 |
    |  156 | 2e+01 | 2e+02 | 2e+01 |     5 |   -0.214 |     0.203 |    0.135 |   0.431 | -1.3e-06 |  1.3e-06 |  1.7e-06 |
    |  157 | 1e+02 | 2e+02 | 8e+01 | 2e+02 |     7.38 |    -0.686 |     1.77 |    8.33 |  3.6e-05 | -1.4e-05 |  2.2e-05 |
    |  158 | 1e+02 | 9e+01 | 2e+02 | 2e+02 |      6.5 |    -0.126 |    -2.38 |    7.75 |  3.1e-05 |   -1e-05 |   -3e-05 |
    |  159 | 9e+01 | 1e+02 | 2e+02 | 1e+02 |     8.38 |    -0.903 |    -1.34 |    9.17 |  4.2e-05 | -1.6e-05 | -1.7e-05 |
    |  160 | 1e+02 | 1e+02 | 2e+02 | 8e+01 |     10.3 |     0.194 |    0.788 |    10.3 |  4.9e-05 | -1.4e-05 |  9.8e-06 |
    |  161 |     3 | 2e+02 | 2e+02 | 2e+01 |     4.07 |      2.66 |     3.31 |    6.77 |  1.6e-05 |  6.9e-06 |  4.1e-05 |
    |  162 | 4e+01 | 4e+01 | 2e+02 | 2e+02 |     6.66 |   -0.0093 |  0.00747 |    6.67 |  3.2e-05 | -9.7e-06 |  9.3e-08 |
    |  163 | 6e+01 | 6e+01 | 2e+02 | 2e+02 |     6.58 |      1.51 |    0.799 |    6.13 |  2.9e-05 | -2.2e-06 |    1e-05 |
    |  164 |     9 | 2e+02 | 2e+02 | 5e+01 |     4.04 |      2.66 |     3.29 |    6.71 |  1.6e-05 |    7e-06 |  4.1e-05 |
    |  165 | 3e+01 | 2e+02 | 2e+02 | 3e+01 |     6.66 |  -0.00849 | -0.00682 |    6.66 |  3.2e-05 | -9.6e-06 | -8.5e-08 |
    |  166 | 6e+01 | 2e+02 | 2e+02 | 6e+01 |     6.54 |      1.42 |   -0.758 |    6.11 |  2.9e-05 | -2.6e-06 | -9.5e-06 |
    |  167 | 2e+02 | 1e+02 | 2e+02 | 2e+02 |     6.69 |    -0.213 |     0.14 |     6.8 |  3.2e-05 | -1.1e-05 |  1.7e-06 |
    |  168 | 1e+01 | 2e+02 | 1e+02 | 5e+01 |    0.344 |     0.292 |    -0.59 |    1.07 |  1.2e-06 |  9.1e-07 | -7.4e-06 |
    |  169 | 2e+02 | 2e+02 | 2e+02 | 2e+02 |     6.63 |     0.795 |   -0.378 |     6.3 |  3.1e-05 | -5.7e-06 | -4.7e-06 |
    |  170 | 2e+02 | 1e+02 | 2e+02 | 2e+02 |     6.19 |    -0.469 |    -1.88 |    7.22 |    3e-05 | -1.1e-05 | -2.4e-05 |
    |  171 | 2e+01 | 2e+02 | 2e+02 | 2e+02 |     2.81 |     0.443 |    -1.56 |    3.76 |  1.3e-05 | -1.9e-06 |   -2e-05 |
    |  172 |     4 | 2e+01 | 2e+02 | 2e+02 |     3.91 |      2.81 |    -3.28 |    6.67 |  1.5e-05 |  7.9e-06 | -4.1e-05 |
    +------+-------+-------+-------+-------+----------+-----------+----------+---------+----------+----------+----------+
