
-------------------------------------------------------------
-------------- Model input ----------------------------------
-------------------------------------------------------------

Model parameters:

+-------------+----------+
| Parameter   |    Value |
|-------------+----------|
| w [m]       |      0.3 |
| h [m]       |      0.1 |
| a [m]       |     0.05 |
| b [m]       |    0.025 |
| E [Pa]      | 2.08e+11 |
| v [-]       |      0.5 |
| t [-]       |     0.01 |
+-------------+----------+

Model boundary conditions:

+----------+----------------+
|   Marker |   Displacement |
|----------+----------------|
|       80 |              0 |
+----------+----------------+

Loads:

+----------+-----------+------------+
|   Marker |   qx[N/m] |   qy [N/m] |
|----------+-----------+------------|
|       50 |     1e+05 |          0 |
+----------+-----------+------------+

-------------------------------------------------------------
-------------- Results --------------------------------------
-------------------------------------------------------------

Model info:

+---------------------+------+
| Max element size:   | 0.05 |
| Dofs per node:      |    2 |
| Element type:       |    2 |
| Number of dofs:     |  406 |
| Number of elements: |  342 |
| Number of nodes:    |  203 |
+---------------------+------+

Summary of results:

+----------------------+-----------+------+
| Max displacement:    |  1.23e-05 | [m]  |
| Min displacement:    | -9.97e-07 | [m]  |
| Max reaction force:  |       528 | [N]  |
| Min reaction force:  | -1.36e+03 | [N]  |
| Sum reaction forces: |    -1e+04 | [N]  |
| Max vonMises:        |  1.86e+07 | [Pa] |
| Min vonMises:        |  6.01e+05 | [Pa] |
+----------------------+-----------+------+

Results per node:

+-----+-------+-------+-----------+------------+----------+-----------+-----------+-----------+
|   N |   dof |   dof |   x_coord |    y_coord |      a_x |       a_y |       R_x |       R_y |
|     |     x |     y |       [m] |        [m] |     [mm] |      [mm] |      [kN] |      [kN] |
|-----+-------+-------+-----------+------------+----------+-----------+-----------+-----------|
|   1 |     1 |     2 |         0 |          0 |        0 |         0 |     -1.05 |    -0.523 |
|   2 |     3 |     4 |     0.125 |          0 |  0.00268 |  0.000406 |  3.41e-16 | -1.71e-16 |
|   3 |     5 |     6 |     0.125 |      0.025 |   0.0042 |  0.000406 |  1.25e-15 | -1.82e-15 |
|   4 |     7 |     8 |     0.175 |      0.025 |  0.00794 |  0.000423 |  1.11e-14 | -1.14e-15 |
|   5 |     9 | 1e+01 |     0.175 |          0 |  0.00955 |   0.00038 | -2.73e-15 | -2.96e-15 |
|   6 | 1e+01 | 1e+01 |       0.3 |          0 |   0.0123 |  0.000921 | -3.41e-15 |  4.55e-16 |
|   7 | 1e+01 | 1e+01 |       0.3 |        0.1 |   0.0122 | -0.000694 | -2.27e-15 | -2.44e-15 |
|   8 | 2e+01 | 2e+01 |     0.175 |        0.1 |  0.00945 | -0.000371 | -1.79e-15 |  1.76e-15 |
|   9 | 2e+01 | 2e+01 |     0.175 |      0.075 |  0.00791 | -0.000364 | -3.87e-15 | -4.09e-15 |
|  10 | 2e+01 | 2e+01 |     0.125 |      0.075 |  0.00421 | -0.000392 | -3.64e-15 |         0 |
|  11 | 2e+01 | 2e+01 |     0.125 |        0.1 |  0.00268 | -0.000384 |  3.41e-16 | -2.56e-16 |
|  12 | 2e+01 | 2e+01 |         0 |        0.1 |        0 |         0 |     -1.06 |     0.528 |
|  13 | 2e+01 | 3e+01 |   0.01563 |          0 | 0.000567 |  0.000523 |  3.41e-16 |  4.55e-16 |
|  14 | 3e+01 | 3e+01 |   0.03125 |          0 |  0.00102 |  0.000722 | -1.11e-15 | -4.55e-16 |
|  15 | 3e+01 | 3e+01 |   0.04688 |          0 |  0.00146 |  0.000828 |  8.24e-16 |  6.82e-16 |
|  16 | 3e+01 | 3e+01 |    0.0625 |          0 |  0.00189 |  0.000912 |         0 |  1.14e-15 |
|  17 | 3e+01 | 3e+01 |   0.07813 |          0 |  0.00228 |  0.000976 | -2.05e-15 |  4.55e-16 |
|  18 | 4e+01 | 4e+01 |   0.09375 |          0 |  0.00258 |   0.00099 |  7.96e-16 |  1.59e-15 |
|  19 | 4e+01 | 4e+01 |    0.1094 |          0 |   0.0027 |  0.000806 | -2.16e-15 |  -2.5e-15 |
|  20 | 4e+01 | 4e+01 |     0.125 |     0.0125 |  0.00312 |  0.000372 |  4.21e-15 |  6.82e-16 |
|  21 | 4e+01 | 4e+01 |    0.1375 |      0.025 |  0.00526 |  0.000631 |  -1.9e-15 |  6.82e-16 |
|  22 | 4e+01 | 4e+01 |      0.15 |      0.025 |  0.00609 |  0.000701 |  1.14e-15 |  1.14e-15 |
|  23 | 4e+01 | 5e+01 |    0.1625 |      0.025 |  0.00695 |  0.000649 |  1.93e-15 | -2.27e-16 |
|  24 | 5e+01 | 5e+01 |     0.175 |     0.0125 |  0.00906 |   0.00033 |  7.73e-15 |  9.09e-16 |
|  25 | 5e+01 | 5e+01 |    0.1906 |          0 |  0.00951 |  0.000847 |  2.61e-15 | -7.11e-16 |
|  26 | 5e+01 | 5e+01 |    0.2062 |          0 |  0.00963 |   0.00103 | -4.66e-15 | -1.82e-15 |
|  27 | 5e+01 | 5e+01 |    0.2219 |          0 |  0.00994 |   0.00101 |  2.27e-15 |  2.27e-16 |
|  28 | 6e+01 | 6e+01 |    0.2375 |          0 |   0.0104 |  0.000971 | -5.34e-15 | -5.91e-15 |
|  29 | 6e+01 | 6e+01 |    0.2531 |          0 |   0.0108 |  0.000939 |  6.54e-16 |  6.71e-15 |
|  30 | 6e+01 | 6e+01 |    0.2687 |          0 |   0.0113 |  0.000922 |  6.76e-15 | -4.09e-15 |
|  31 | 6e+01 | 6e+01 |    0.2844 |          0 |   0.0118 |  0.000918 | -1.98e-14 | -3.64e-15 |
|  32 | 6e+01 | 6e+01 |       0.3 |    0.01429 |   0.0123 |  0.000692 |  1.09e-14 | -2.27e-15 |
|  33 | 6e+01 | 7e+01 |       0.3 |    0.02857 |   0.0123 |  0.000463 | -6.82e-16 | -1.36e-15 |
|  34 | 7e+01 | 7e+01 |       0.3 |    0.04286 |   0.0123 |  0.000231 |  4.55e-16 |  2.22e-15 |
|  35 | 7e+01 | 7e+01 |       0.3 |    0.05714 |   0.0123 | -3.67e-06 | -3.41e-15 |  7.82e-17 |
|  36 | 7e+01 | 7e+01 |       0.3 |    0.07143 |   0.0123 | -0.000236 |  7.73e-15 | -1.36e-15 |
|  37 | 7e+01 | 7e+01 |       0.3 |    0.08571 |   0.0123 | -0.000466 | -1.34e-14 |  4.15e-15 |
|  38 | 8e+01 | 8e+01 |    0.2844 |        0.1 |   0.0117 | -0.000715 | -5.91e-15 | -4.55e-15 |
|  39 | 8e+01 | 8e+01 |    0.2687 |        0.1 |   0.0112 | -0.000744 | -8.81e-15 | -6.59e-15 |
|  40 | 8e+01 | 8e+01 |    0.2531 |        0.1 |   0.0107 | -0.000783 |  2.16e-15 |  2.73e-15 |
|  41 | 8e+01 | 8e+01 |    0.2375 |        0.1 |   0.0103 | -0.000846 |   1.1e-14 | -4.32e-15 |
|  42 | 8e+01 | 8e+01 |    0.2219 |        0.1 |  0.00987 | -0.000893 | -5.23e-15 |  6.82e-16 |
|  43 | 8e+01 | 9e+01 |    0.2062 |        0.1 |  0.00957 | -0.000938 | -5.29e-15 | -7.96e-16 |
|  44 | 9e+01 | 9e+01 |    0.1906 |        0.1 |  0.00944 | -0.000764 |    -5e-15 | -7.05e-15 |
|  45 | 9e+01 | 9e+01 |     0.175 |     0.0875 |  0.00902 |  -0.00034 |  7.28e-15 |  2.05e-15 |
|  46 | 9e+01 | 9e+01 |    0.1625 |      0.075 |  0.00692 | -0.000615 | -2.27e-15 |  1.59e-15 |
|  47 | 9e+01 | 9e+01 |      0.15 |      0.075 |  0.00606 | -0.000689 |  8.64e-15 | -4.55e-16 |
|  48 | 1e+02 | 1e+02 |    0.1375 |      0.075 |   0.0052 | -0.000624 | -9.89e-15 |  5.68e-15 |
|  49 | 1e+02 | 1e+02 |     0.125 |     0.0875 |  0.00313 |  -0.00035 | -1.85e-16 | -1.14e-16 |
|  50 | 1e+02 | 1e+02 |    0.1094 |        0.1 |  0.00269 |   -0.0008 |         0 | -1.14e-15 |
|  51 | 1e+02 | 1e+02 |   0.09375 |        0.1 |  0.00257 | -0.000997 |  4.55e-16 |  6.82e-16 |
|  52 | 1e+02 | 1e+02 |   0.07812 |        0.1 |  0.00227 | -0.000961 |   8.1e-16 | -5.68e-16 |
|  53 | 1e+02 | 1e+02 |    0.0625 |        0.1 |  0.00188 | -0.000909 | -4.55e-16 | -2.05e-15 |
|  54 | 1e+02 | 1e+02 |   0.04687 |        0.1 |  0.00145 | -0.000833 | -4.55e-16 | -2.27e-16 |
|  55 | 1e+02 | 1e+02 |   0.03125 |        0.1 |  0.00102 | -0.000719 | -1.36e-15 |  2.05e-15 |
|  56 | 1e+02 | 1e+02 |   0.01562 |        0.1 | 0.000567 |  -0.00052 | -3.41e-16 |         0 |
|  57 | 1e+02 | 1e+02 |         0 |    0.08571 |        0 |         0 |     -1.36 |     0.261 |
|  58 | 1e+02 | 1e+02 |         0 |    0.07143 |        0 |         0 |     -1.29 |     0.151 |
|  59 | 1e+02 | 1e+02 |         0 |    0.05714 |        0 |         0 |     -1.28 |    0.0609 |
|  60 | 1e+02 | 1e+02 |         0 |    0.04286 |        0 |         0 |      -1.3 |   -0.0632 |
|  61 | 1e+02 | 1e+02 |         0 |    0.02857 |        0 |         0 |      -1.3 |    -0.152 |
|  62 | 1e+02 | 1e+02 |         0 |    0.01429 |        0 |         0 |     -1.36 |    -0.262 |
|  63 | 1e+02 | 1e+02 |    0.2877 |    0.04985 |   0.0119 |  0.000106 |  1.23e-14 |  3.87e-15 |
|  64 | 1e+02 | 1e+02 |   0.01237 |       0.05 | 0.000297 |  4.65e-06 |  1.14e-16 | -5.68e-17 |
|  65 | 1e+02 | 1e+02 |   0.07031 |    0.01353 |   0.0021 |   0.00076 | -9.09e-16 |         0 |
|  66 | 1e+02 | 1e+02 |    0.2297 |    0.08675 |     0.01 | -0.000687 |  9.98e-15 | -8.87e-15 |
|  67 | 1e+02 | 1e+02 |   0.08583 |    0.08755 |  0.00252 | -0.000834 |  2.73e-15 |         0 |
|  68 | 1e+02 | 1e+02 |    0.2137 |    0.01415 |  0.00964 |  0.000856 |  -2.3e-14 |  3.87e-15 |
|  69 | 1e+02 | 1e+02 |    0.2468 |    0.01548 |   0.0106 |   0.00071 |  2.54e-14 | -9.55e-15 |
|  70 | 1e+02 | 1e+02 |   0.05371 |    0.08661 |   0.0016 | -0.000674 | -4.09e-15 |  9.09e-16 |
|  71 | 1e+02 | 1e+02 |    0.2591 |     0.0872 |   0.0109 | -0.000565 | -2.83e-14 |  1.09e-14 |
|  72 | 1e+02 | 1e+02 |   0.04079 |    0.01541 |   0.0012 |  0.000568 | -2.27e-15 | -4.55e-16 |
|  73 | 1e+02 | 1e+02 |    0.1313 |    0.06411 |  0.00493 | -0.000211 | -1.34e-14 |  2.96e-15 |
|  74 | 1e+02 | 1e+02 |    0.1168 |    0.06668 |  0.00418 | -0.000367 |  6.42e-15 |  3.18e-15 |
|  75 | 1e+02 | 2e+02 |    0.1687 |    0.06413 |  0.00721 | -0.000196 | -2.56e-15 | -4.66e-15 |
|  76 | 2e+02 | 2e+02 |    0.1814 |     0.0636 |  0.00781 | -0.000247 | -9.95e-15 | -1.38e-14 |
|  77 | 2e+02 | 2e+02 |    0.1429 |    0.03593 |  0.00564 |  0.000353 |  1.85e-14 | -1.25e-15 |
|  78 | 2e+02 | 2e+02 |    0.1024 |    0.01271 |  0.00293 |  0.000849 |  1.39e-14 | -9.09e-16 |
|  79 | 2e+02 | 2e+02 |    0.1687 |    0.03583 |  0.00723 |   0.00024 | -5.91e-15 | -4.77e-15 |
|  80 | 2e+02 | 2e+02 |    0.1812 |    0.03583 |  0.00784 |  0.000319 | -2.48e-14 |  2.96e-15 |
|  81 | 2e+02 | 2e+02 |    0.2766 |    0.01353 |   0.0116 |  0.000702 |  3.22e-14 |  4.09e-15 |
|  82 | 2e+02 | 2e+02 |   0.02417 |    0.08727 | 0.000689 | -0.000457 | -1.14e-15 | -1.36e-15 |
|  83 | 2e+02 | 2e+02 |    0.1247 |    0.05357 |  0.00475 | -6.47e-05 |  2.39e-15 |  2.27e-16 |
|  84 | 2e+02 | 2e+02 |    0.1116 |    0.05347 |  0.00411 | -8.89e-05 |  4.32e-15 |  -3.1e-15 |
|  85 | 2e+02 | 2e+02 |     0.199 |    0.08723 |  0.00923 |  -0.00081 |    -2e-14 |  7.96e-15 |
|  86 | 2e+02 | 2e+02 |    0.1055 |     0.0646 |  0.00368 | -0.000381 | -9.52e-16 |  1.53e-15 |
|  87 | 2e+02 | 2e+02 |   0.09829 |    0.05259 |  0.00347 | -7.22e-05 | -6.48e-15 | -1.36e-15 |
|  88 | 2e+02 | 2e+02 |    0.1883 |    0.02507 |  0.00852 |   0.00062 | -7.73e-15 |    -5e-15 |
|  89 | 2e+02 | 2e+02 |    0.1943 |    0.03612 |  0.00845 |  0.000408 |  1.57e-14 |  2.05e-15 |
|  90 | 2e+02 | 2e+02 |    0.1063 |    0.04111 |  0.00381 |  0.000234 | -2.22e-15 | -2.43e-15 |
|  91 | 2e+02 | 2e+02 |   0.09246 |    0.03773 |  0.00312 |  0.000347 |  9.09e-15 |  2.61e-15 |
|  92 | 2e+02 | 2e+02 |   0.08425 |    0.05214 |  0.00282 | -4.58e-05 | -1.35e-15 |  1.28e-15 |
|  93 | 2e+02 | 2e+02 |   0.07699 |    0.03994 |  0.00249 |  0.000247 | -1.73e-15 | -4.55e-16 |
|  94 | 2e+02 | 2e+02 |   0.06941 |    0.05235 |   0.0022 | -5.68e-05 |  3.67e-15 | -5.68e-16 |
|  95 | 2e+02 | 2e+02 |   0.06193 |    0.04024 |  0.00191 |  0.000207 |  2.27e-15 | -1.25e-15 |
|  96 | 2e+02 | 2e+02 |   0.05437 |    0.05248 |  0.00163 |  -4.9e-05 | -3.69e-15 |  7.96e-16 |
|  97 | 2e+02 | 2e+02 |   0.04741 |    0.04051 |  0.00138 |  0.000174 |  -2.5e-15 | -1.36e-15 |
|  98 | 2e+02 | 2e+02 |   0.03961 |    0.05343 |  0.00112 |  -5.7e-05 |   3.1e-15 | -3.69e-16 |
|  99 | 2e+02 | 2e+02 |    0.2882 |    0.07836 |   0.0119 | -0.000362 | -1.47e-14 | -8.36e-15 |
| 100 | 2e+02 | 2e+02 |   0.01134 |    0.02172 | 0.000274 |  0.000156 |  6.82e-16 | -2.84e-16 |
| 101 | 2e+02 | 2e+02 |    0.1146 |    0.08056 |  0.00351 | -0.000666 |  8.19e-15 | -1.36e-15 |
| 102 | 2e+02 | 2e+02 |   0.03257 |    0.03924 | 0.000884 |  0.000154 |  2.67e-15 |   4.9e-16 |
| 103 | 2e+02 | 2e+02 |    0.1385 |    0.05317 |  0.00542 | -4.58e-05 |  1.77e-14 | -6.93e-15 |
| 104 | 2e+02 | 2e+02 |   0.07706 |    0.06581 |  0.00245 | -0.000386 | -1.36e-15 | -3.87e-15 |
| 105 | 2e+02 | 2e+02 |     0.175 |    0.05316 |   0.0074 | -2.81e-05 | -1.64e-14 |  5.74e-15 |
| 106 | 2e+02 | 2e+02 |    0.1604 |    0.05468 |  0.00668 | -7.79e-05 |  1.66e-14 |  1.14e-15 |
| 107 | 2e+02 | 2e+02 |   0.05489 |    0.02645 |  0.00163 |  0.000461 | -6.82e-16 | -9.09e-16 |
| 108 | 2e+02 | 2e+02 |   0.04654 |    0.06498 |  0.00135 | -0.000269 | -9.09e-16 | -2.27e-16 |
| 109 | 2e+02 | 2e+02 |   0.03371 |    0.06527 | 0.000924 | -0.000224 |  1.85e-15 | -5.68e-16 |
| 110 | 2e+02 | 2e+02 |    0.1879 |    0.05551 |  0.00804 | -9.08e-05 |  -1.4e-14 | -3.98e-16 |
| 111 | 2e+02 | 2e+02 |    0.1945 |    0.06389 |  0.00845 | -0.000321 | -1.14e-15 |  4.09e-15 |
| 112 | 2e+02 | 2e+02 |    0.1995 |      0.051 |  0.00857 |  1.79e-05 |  -1.9e-14 | -8.24e-15 |
| 113 | 2e+02 | 2e+02 |     0.208 |    0.06428 |  0.00906 | -0.000336 | -9.89e-15 |  3.18e-15 |
| 114 | 2e+02 | 2e+02 |    0.2153 |    0.05228 |   0.0093 | -1.52e-05 |  6.54e-15 | -3.18e-15 |
| 115 | 2e+02 | 2e+02 |    0.2227 |    0.06461 |  0.00965 | -0.000296 |  1.56e-14 | -6.82e-15 |
| 116 | 2e+02 | 2e+02 |    0.2303 |    0.05267 |  0.00991 | -1.72e-06 | -4.21e-15 | -2.39e-15 |
| 117 | 2e+02 | 2e+02 |    0.2377 |    0.06492 |   0.0102 | -0.000247 | -1.33e-14 |  5.91e-15 |
| 118 | 2e+02 | 2e+02 |    0.2453 |    0.05286 |   0.0105 |  1.11e-05 |  1.19e-14 | -9.09e-16 |
| 119 | 2e+02 | 2e+02 |    0.2243 |    0.03784 |  0.00972 |  0.000341 |  3.42e-14 | -3.18e-15 |
| 120 | 2e+02 | 2e+02 |    0.2523 |    0.06527 |   0.0107 | -0.000212 |  1.51e-14 |  2.84e-15 |
| 121 | 2e+02 | 2e+02 |    0.2601 |    0.05299 |    0.011 |  2.73e-05 | -2.44e-14 |  1.31e-15 |
| 122 | 2e+02 | 2e+02 |    0.2535 |    0.04043 |   0.0108 |  0.000255 | -1.53e-15 |  1.18e-14 |
| 123 | 2e+02 | 2e+02 |    0.2672 |    0.04089 |   0.0112 |  0.000248 |   6.1e-14 | -1.14e-14 |
| 124 | 2e+02 | 2e+02 |    0.2651 |    0.06617 |   0.0111 | -0.000199 | -1.53e-14 |  4.21e-15 |
| 125 | 2e+02 | 2e+02 |     0.261 |    0.02636 |   0.0111 |  0.000502 | -2.64e-14 | -1.19e-14 |
| 126 | 3e+02 | 3e+02 |   0.08241 |    0.02629 |  0.00259 |  0.000588 |  7.84e-15 | -1.82e-15 |
| 127 | 3e+02 | 3e+02 |    0.2023 |    0.02609 |  0.00902 |  0.000668 | -7.39e-15 |  3.64e-15 |
| 128 | 3e+02 | 3e+02 |   0.03936 |    0.07954 |  0.00113 | -0.000478 |  2.73e-15 |  3.18e-15 |
| 129 | 3e+02 | 3e+02 |    0.2449 |    0.07858 |   0.0105 | -0.000478 |  4.32e-15 |  7.39e-15 |
| 130 | 3e+02 | 3e+02 |     0.215 |    0.07764 |  0.00951 | -0.000614 | -2.33e-14 | -9.09e-16 |
| 131 | 3e+02 | 3e+02 |    0.1325 |    0.04324 |   0.0051 |  9.25e-05 | -1.74e-14 | -8.81e-16 |
| 132 | 3e+02 | 3e+02 |    0.2083 |    0.03943 |  0.00905 |  0.000327 |  7.96e-15 | -3.64e-15 |
| 133 | 3e+02 | 3e+02 |    0.2295 |    0.01341 |   0.0101 |  0.000795 |  9.09e-16 |    -1e-14 |
| 134 | 3e+02 | 3e+02 |    0.2373 |    0.02663 |   0.0103 |  0.000548 | -5.83e-14 |  1.82e-15 |
| 135 | 3e+02 | 3e+02 |   0.07017 |    0.08755 |  0.00209 | -0.000763 |  5.46e-15 |  9.09e-16 |
| 136 | 3e+02 | 3e+02 |   0.06415 |    0.07468 |  0.00195 |  -0.00052 | -1.18e-14 |  4.55e-16 |
| 137 | 3e+02 | 3e+02 |    0.1202 |     0.0424 |   0.0045 |  0.000152 |  4.77e-15 |  4.55e-16 |
| 138 | 3e+02 | 3e+02 |    0.1439 |    0.06466 |  0.00569 | -0.000352 |  1.57e-14 | -5.23e-15 |
| 139 | 3e+02 | 3e+02 |    0.1561 |    0.03531 |  0.00646 |   0.00037 | -2.73e-15 | -2.27e-15 |
| 140 | 3e+02 | 3e+02 |      0.15 |    0.04665 |  0.00608 |  9.49e-05 | -1.39e-14 | -3.18e-15 |
| 141 | 3e+02 | 3e+02 |    0.1559 |      0.065 |  0.00644 | -0.000358 | -8.07e-15 |  5.23e-15 |
| 142 | 3e+02 | 3e+02 |   0.08681 |    0.01233 |  0.00256 |  0.000844 | -4.09e-15 |  2.27e-15 |
| 143 | 3e+02 | 3e+02 |    0.1143 |     0.0194 |  0.00349 |  0.000689 | -1.31e-14 | -7.73e-15 |
| 144 | 3e+02 | 3e+02 |     0.104 |    0.02715 |  0.00342 |  0.000601 |  4.66e-15 |   2.5e-15 |
| 145 | 3e+02 | 3e+02 |    0.1025 |    0.08703 |  0.00295 |  -0.00085 | -6.82e-16 |  7.28e-15 |
| 146 | 3e+02 | 3e+02 |   0.09218 |    0.07439 |  0.00293 | -0.000637 | -7.73e-15 |  -2.5e-15 |
| 147 | 3e+02 | 3e+02 |   0.01198 |    0.03573 | 0.000284 |  8.21e-05 | -2.27e-16 |  3.38e-17 |
| 148 | 3e+02 | 3e+02 |    0.2884 |    0.03563 |   0.0119 |  0.000342 |  2.85e-14 | -3.18e-15 |
| 149 | 3e+02 | 3e+02 |    0.2881 |    0.06366 |   0.0119 | -0.000122 | -4.32e-15 |  6.54e-15 |
| 150 | 3e+02 | 3e+02 |   0.01187 |    0.06385 |  0.00028 | -7.84e-05 |  6.25e-16 | -2.84e-17 |
| 151 | 3e+02 | 3e+02 |     0.187 |    0.08126 |  0.00872 |  -0.00067 |  2.73e-14 |  3.64e-15 |
| 152 | 3e+02 | 3e+02 |    0.2149 |    0.02838 |  0.00946 |   0.00057 |  3.41e-15 | -4.55e-16 |
| 153 | 3e+02 | 3e+02 |    0.2759 |    0.08684 |   0.0115 | -0.000518 |  1.36e-15 |  9.71e-15 |
| 154 | 3e+02 | 3e+02 |   0.02345 |    0.01409 | 0.000659 |   0.00043 | -1.14e-16 | -9.09e-16 |
| 155 | 3e+02 | 3e+02 |   0.03203 |    0.02531 | 0.000889 |  0.000348 | -4.92e-15 | -1.05e-15 |
| 156 | 3e+02 | 3e+02 |   0.06946 |     0.0285 |  0.00214 |  0.000471 |  -2.9e-15 | -4.55e-16 |
| 157 | 3e+02 | 3e+02 |    0.2883 |    0.02173 |   0.0119 |  0.000569 | -1.59e-15 | -5.46e-15 |
| 158 | 3e+02 | 3e+02 |    0.2767 |    0.03017 |   0.0116 |  0.000429 |  3.92e-15 |  5.46e-15 |
| 159 | 3e+02 | 3e+02 |   0.01133 |     0.0783 | 0.000274 | -0.000157 |  9.09e-16 |  6.82e-16 |
| 160 | 3e+02 | 3e+02 |   0.05507 |    0.01108 |  0.00165 |   0.00071 |  2.73e-15 | -4.09e-15 |
| 161 | 3e+02 | 3e+02 |    0.2613 |    0.01107 |   0.0111 |  0.000752 | -7.05e-15 | -3.64e-15 |
| 162 | 3e+02 | 3e+02 |    0.2393 |    0.04013 |   0.0103 |  0.000268 |  1.02e-15 | -5.68e-16 |
| 163 | 3e+02 | 3e+02 |    0.2751 |    0.05541 |   0.0115 |  1.13e-06 | -8.21e-15 | -7.05e-15 |
| 164 | 3e+02 | 3e+02 |    0.1941 |    0.01304 |  0.00918 |  0.000861 |  6.14e-15 | -2.73e-15 |
| 165 | 3e+02 | 3e+02 |   0.02488 |    0.05492 | 0.000645 | -5.87e-05 | -3.47e-15 | -5.12e-16 |
| 166 | 3e+02 | 3e+02 |    0.1168 |    0.03126 |  0.00412 |  0.000418 | -1.59e-14 | -7.73e-15 |
| 167 | 3e+02 | 3e+02 |    0.1992 |    0.07441 |  0.00889 | -0.000586 |  1.25e-14 |  4.49e-15 |
| 168 | 3e+02 | 3e+02 |   0.09146 |    0.06191 |  0.00309 | -0.000319 |  4.15e-15 | -1.56e-15 |
| 169 | 3e+02 | 3e+02 |    0.2141 |    0.09035 |  0.00965 | -0.000806 |  -2.5e-15 | -5.46e-15 |
| 170 | 3e+02 | 3e+02 |    0.2782 |    0.07143 |   0.0116 | -0.000264 | -3.18e-15 |  8.24e-15 |
| 171 | 3e+02 | 3e+02 |    0.1498 |    0.05675 |  0.00607 | -0.000144 | -1.39e-14 |  6.37e-15 |
| 172 | 3e+02 | 3e+02 |    0.1642 |    0.04483 |  0.00689 |  9.78e-05 |  1.78e-14 |  1.59e-15 |
| 173 | 3e+02 | 3e+02 |   0.02211 |    0.07165 | 0.000572 | -0.000228 | -2.84e-16 |  9.09e-16 |
| 174 | 3e+02 | 3e+02 |    0.1047 |    0.07562 |  0.00335 | -0.000638 |  2.84e-15 | -7.28e-15 |
| 175 | 3e+02 | 4e+02 |    0.2482 |    0.02933 |   0.0106 |  0.000466 |  3.29e-14 | -6.82e-16 |
| 176 | 4e+02 | 4e+02 |    0.0421 |     0.0293 |   0.0012 |  0.000347 |  4.15e-15 |  1.59e-15 |
| 177 | 4e+02 | 4e+02 |    0.1297 |    0.03343 |  0.00482 |   0.00025 |  7.96e-16 |  -2.5e-15 |
| 178 | 4e+02 | 4e+02 |   0.07788 |      0.078 |  0.00239 | -0.000638 | -3.13e-16 | -2.39e-15 |
| 179 | 4e+02 | 4e+02 |    0.2672 |    0.07752 |   0.0112 | -0.000386 | -2.99e-14 | -1.96e-14 |
| 180 | 4e+02 | 4e+02 |      0.23 |     0.0745 |  0.00999 | -0.000465 | -1.98e-14 |     5e-15 |
| 181 | 4e+02 | 4e+02 |    0.2453 |    0.09092 |   0.0105 | -0.000674 | -1.34e-14 | -3.18e-15 |
| 182 | 4e+02 | 4e+02 |    0.1754 |     0.0426 |  0.00746 |   0.00016 | -1.84e-14 | -9.21e-15 |
| 183 | 4e+02 | 4e+02 |    0.2789 |    0.04286 |   0.0116 |  0.000216 | -7.13e-14 |  -7.5e-15 |
| 184 | 4e+02 | 4e+02 |    0.2252 |    0.02428 |  0.00987 |  0.000625 |  1.18e-14 | -1.82e-15 |
| 185 | 4e+02 | 4e+02 |    0.2894 |     0.0898 |   0.0119 | -0.000544 |  5.46e-15 |  1.73e-14 |
| 186 | 4e+02 | 4e+02 |   0.01047 |    0.01015 | 0.000273 |  0.000232 | -3.41e-16 |  2.27e-16 |
| 187 | 4e+02 | 4e+02 |    0.2899 |    0.00991 |    0.012 |  0.000759 | -4.95e-14 | -1.14e-15 |
| 188 | 4e+02 | 4e+02 |   0.01057 |    0.08984 | 0.000277 | -0.000237 |  1.08e-15 |  1.99e-16 |
| 189 | 4e+02 | 4e+02 |   0.03906 |    0.09126 |  0.00118 | -0.000656 |         0 | -4.32e-15 |
| 190 | 4e+02 | 4e+02 |   0.06161 |     0.0626 |  0.00188 | -0.000266 |  5.68e-16 |  1.36e-15 |
| 191 | 4e+02 | 4e+02 |    0.0936 |    0.02324 |  0.00294 |  0.000682 | -3.41e-16 |  5.46e-15 |
| 192 | 4e+02 | 4e+02 |   0.02049 |    0.04169 | 0.000519 |  7.67e-05 |  6.54e-16 |  8.67e-16 |
| 193 | 4e+02 | 4e+02 |    0.1152 |   0.008922 |  0.00295 |   0.00068 | -5.91e-15 |  4.43e-15 |
| 194 | 4e+02 | 4e+02 |    0.1853 |     0.0912 |   0.0092 | -0.000652 |   1.8e-15 |  5.91e-15 |
| 195 | 4e+02 | 4e+02 |    0.1153 |    0.09102 |  0.00295 | -0.000666 | -4.77e-15 | -3.18e-15 |
| 196 | 4e+02 | 4e+02 |   0.02066 |    0.02857 | 0.000526 |  0.000216 |  1.93e-15 | -1.53e-15 |
| 197 | 4e+02 | 4e+02 |     0.141 |    0.04464 |  0.00556 |  0.000145 | -1.01e-14 |  9.15e-15 |
| 198 | 4e+02 | 4e+02 |    0.1835 |   0.007702 |  0.00927 |  0.000673 |  1.02e-15 |     5e-15 |
| 199 | 4e+02 | 4e+02 |    0.1861 |    0.04503 |  0.00795 |  0.000147 |  1.06e-14 |  6.82e-16 |
| 200 | 4e+02 | 4e+02 |    0.2576 |    0.07523 |   0.0109 | -0.000372 |  3.56e-14 | -1.23e-14 |
| 201 | 4e+02 | 4e+02 |    0.1834 |    0.01644 |  0.00881 |   0.00068 | -1.33e-14 |         0 |
| 202 | 4e+02 | 4e+02 |    0.1875 |    0.07163 |  0.00833 | -0.000472 |  2.33e-15 |         0 |
| 203 | 4e+02 | 4e+02 |    0.0525 |     0.0751 |  0.00156 | -0.000471 | -3.64e-15 |         0 |
+-----+-------+-------+-----------+------------+----------+-----------+-----------+-----------+

Results per element:

+------+-----+-----+-----+----------+----------+----------+---------+-----------+-----------+-----------+
|   El |   N |   N |   N |   sig_xx |   sig_yy |   tau_xy |   vMise |    eps_xx |    eps_yy |    eps_xy |
|   Nb |   1 |   2 |   3 |    [MPa] |    [MPa] |    [MPa] |   [MPa] |       [-] |       [-] |       [-] |
|------+-----+-----+-----+----------+----------+----------+---------+-----------+-----------+-----------|
|    1 | 125 |  81 | 158 |    6.669 |   -0.080 |   -0.101 |   6.711 |  3.23e-05 | -1.64e-05 | -1.46e-06 |
|    2 |  26 |  68 | 164 |    4.923 |   -0.119 |   -0.811 |   5.178 |  2.40e-05 | -1.24e-05 | -1.17e-05 |
|    3 |  68 | 127 | 164 |    4.798 |   -0.747 |   -1.918 |   6.181 |  2.49e-05 | -1.51e-05 | -2.77e-05 |
|    4 |  74 | 101 | 174 |    7.543 |   -0.476 |   -2.405 |   8.836 |  3.74e-05 | -2.04e-05 | -3.47e-05 |
|    5 |  81 | 125 | 161 |    6.592 |   -0.100 |   -0.123 |   6.646 |  3.19e-05 | -1.63e-05 | -1.78e-06 |
|    6 | 144 |  91 | 191 |    7.767 |   -0.914 |    1.134 |   8.493 |  3.95e-05 | -2.31e-05 |  1.64e-05 |
|    7 | 107 |  65 | 156 |    6.878 |   -0.530 |    0.570 |   7.225 |  3.43e-05 | -1.91e-05 |  8.22e-06 |
|    8 |  65 | 107 | 160 |    6.014 |   -0.352 |    0.361 |   6.229 |  2.98e-05 | -1.61e-05 |  5.21e-06 |
|    9 |  69 | 125 | 175 |    6.699 |   -0.294 |   -0.299 |   6.871 |  3.29e-05 | -1.75e-05 | -4.32e-06 |
|   10 |  72 | 107 | 176 |    6.824 |   -0.007 |    0.191 |   6.836 |  3.28e-05 | -1.64e-05 |  2.76e-06 |
|   11 | 128 |  82 | 173 |    6.689 |    0.528 |   -0.340 |   6.468 |  3.09e-05 | -1.35e-05 | -4.90e-06 |
|   12 | 125 |  69 | 161 |    6.445 |   -0.179 |   -0.226 |   6.547 |  3.14e-05 | -1.64e-05 | -3.26e-06 |
|   13 |  74 |  10 | 101 |    9.952 |    1.024 |   -1.703 |   9.930 |  4.54e-05 | -1.90e-05 | -2.46e-05 |
|   14 | 107 |  72 | 160 |    6.451 |   -0.136 |    0.308 |   6.541 |  3.13e-05 | -1.62e-05 |  4.44e-06 |
|   15 | 137 | 166 | 177 |   11.289 |    1.274 |    0.661 |  10.770 |  5.12e-05 | -2.10e-05 |  9.53e-06 |
|   16 | 166 |   3 | 177 |   11.195 |    3.028 |    2.484 |  10.913 |  4.65e-05 | -1.24e-05 |  3.58e-05 |
|   17 |  89 | 112 | 199 |   10.275 |   -0.487 |   -0.487 |  10.561 |  5.06e-05 | -2.70e-05 | -7.02e-06 |
|   18 | 126 |  65 | 142 |    5.553 |   -0.787 |    1.056 |   6.258 |  2.86e-05 | -1.71e-05 |  1.52e-05 |
|   19 |  86 |  74 | 174 |   10.267 |    0.365 |   -1.489 |  10.414 |  4.85e-05 | -2.29e-05 | -2.15e-05 |
|   20 |  91 | 126 | 191 |    6.728 |   -1.413 |    1.200 |   7.816 |  3.57e-05 | -2.30e-05 |  1.73e-05 |
|   21 | 112 |  89 | 132 |    8.564 |   -1.198 |   -0.466 |   9.257 |  4.41e-05 | -2.63e-05 | -6.72e-06 |
|   22 |  65 | 126 | 156 |    7.203 |   -0.339 |    0.738 |   7.488 |  3.54e-05 | -1.89e-05 |  1.06e-05 |
|   23 | 119 | 134 | 162 |    7.586 |   -0.467 |   -0.467 |   7.872 |  3.76e-05 | -2.05e-05 | -6.74e-06 |
|   24 | 109 | 128 | 173 |    6.686 |    0.287 |   -0.389 |   6.582 |  3.15e-05 | -1.47e-05 | -5.61e-06 |
|   25 | 134 | 119 | 184 |    6.553 |   -1.101 |   -0.778 |   7.293 |  3.42e-05 | -2.10e-05 | -1.12e-05 |
|   26 |  90 |  91 | 144 |    8.688 |   -1.054 |    1.310 |   9.534 |  4.43e-05 | -2.60e-05 |  1.89e-05 |
|   27 | 130 |  85 | 167 |    6.819 |   -0.223 |    1.995 |   7.747 |  3.33e-05 | -1.75e-05 |  2.88e-05 |
|   28 | 163 | 149 | 170 |    6.673 |   -0.146 |    0.046 |   6.748 |  3.24e-05 | -1.67e-05 |  6.61e-07 |
|   29 |  89 | 127 | 132 |    9.419 |   -0.647 |   -1.297 |  10.013 |  4.68e-05 | -2.58e-05 | -1.87e-05 |
|   30 | 146 | 104 | 168 |    7.557 |   -1.499 |   -1.217 |   8.667 |  3.99e-05 | -2.54e-05 | -1.75e-05 |
|   31 |  85 | 130 | 169 |    4.816 |   -0.679 |    1.122 |   5.541 |  2.48e-05 | -1.48e-05 |  1.62e-05 |
|   32 | 105 | 106 | 172 |   11.137 |    1.988 |   -0.036 |  10.288 |  4.88e-05 | -1.72e-05 | -5.26e-07 |
|   33 | 104 | 146 | 178 |    7.002 |   -0.732 |   -0.863 |   7.545 |  3.54e-05 | -2.04e-05 | -1.25e-05 |
|   34 | 105 | 172 | 182 |   11.422 |    2.021 |   -0.124 |  10.560 |  5.01e-05 | -1.77e-05 | -1.79e-06 |
|   35 | 150 | 165 | 173 |    6.284 |    0.826 |   -0.400 |   5.955 |  2.82e-05 | -1.11e-05 | -5.78e-06 |
|   36 | 132 | 127 | 152 |    7.057 |   -1.470 |   -1.262 |   8.193 |  3.75e-05 | -2.40e-05 | -1.82e-05 |
|   37 | 105 | 182 | 199 |   10.617 |    1.624 |   -0.081 |   9.907 |  4.71e-05 | -1.77e-05 | -1.17e-06 |
|   38 | 112 | 110 | 199 |    9.636 |    0.087 |    0.070 |   9.594 |  4.61e-05 | -2.27e-05 |  1.01e-06 |
|   39 | 124 | 163 | 170 |    6.717 |   -0.153 |    0.093 |   6.797 |  3.27e-05 | -1.69e-05 |  1.34e-06 |
|   40 | 131 | 137 | 177 |   11.241 |    2.509 |    0.817 |  10.317 |  4.80e-05 | -1.50e-05 |  1.18e-05 |
|   41 | 110 | 105 | 199 |   10.713 |    0.672 |   -0.064 |  10.394 |  4.99e-05 | -2.25e-05 | -9.22e-07 |
|   42 | 127 |  68 | 152 |    7.710 |   -0.257 |   -1.401 |   8.209 |  3.77e-05 | -1.98e-05 | -2.02e-05 |
|   43 |  25 |  26 | 164 |    1.869 |    0.516 |   -1.091 |   2.523 |  7.74e-06 | -2.01e-06 | -1.57e-05 |
|   44 |  63 | 149 | 163 |    6.737 |   -0.082 |    0.023 |   6.778 |  3.26e-05 | -1.66e-05 |  3.25e-07 |
|   45 | 165 | 109 | 173 |    6.976 |    1.184 |   -0.347 |   6.494 |  3.07e-05 | -1.11e-05 | -5.01e-06 |
|   46 | 167 | 151 | 202 |    7.620 |   -0.510 |    2.611 |   9.092 |  3.79e-05 | -2.08e-05 |  3.77e-05 |
|   47 |  18 |  19 |  78 |    1.772 |    0.250 |    0.763 |   2.122 |  7.92e-06 | -3.06e-06 |  1.10e-05 |
|   48 | 150 |  64 | 165 |    6.883 |    2.173 |   -0.197 |   6.104 |  2.79e-05 | -6.10e-06 | -2.84e-06 |
|   49 | 135 |  70 | 136 |    5.991 |   -0.501 |   -0.509 |   6.319 |  3.00e-05 | -1.68e-05 | -7.34e-06 |
|   50 | 133 |  69 | 134 |    6.204 |   -0.428 |   -0.580 |   6.507 |  3.09e-05 | -1.70e-05 | -8.37e-06 |
|   51 |  53 |  70 | 135 |    6.235 |    0.088 |   -0.222 |   6.204 |  2.98e-05 | -1.46e-05 | -3.20e-06 |
|   52 |  28 |  69 | 133 |    6.351 |    0.060 |   -0.324 |   6.346 |  3.04e-05 | -1.50e-05 | -4.68e-06 |
|   53 |  65 |  17 | 142 |    5.869 |    0.102 |    0.488 |   5.880 |  2.80e-05 | -1.36e-05 |  7.04e-06 |
|   54 |  85 | 151 | 167 |    5.651 |   -0.820 |    1.661 |   6.747 |  2.91e-05 | -1.75e-05 |  2.40e-05 |
|   55 |  43 |  44 |  85 |    1.885 |    0.171 |    0.739 |   2.213 |  8.65e-06 | -3.71e-06 |  1.07e-05 |
|   56 |  82 | 128 | 189 |    6.636 |    0.100 |   -0.302 |   6.608 |  3.17e-05 | -1.55e-05 | -4.36e-06 |
|   57 | 129 |  71 | 181 |    6.482 |   -0.091 |    0.304 |   6.549 |  3.14e-05 | -1.60e-05 |  4.38e-06 |
|   58 |  67 |  52 | 135 |    5.751 |    0.167 |   -0.522 |   5.741 |  2.72e-05 | -1.30e-05 | -7.53e-06 |
|   59 |  68 |  27 | 133 |    6.053 |    0.165 |   -0.670 |   6.084 |  2.87e-05 | -1.38e-05 | -9.66e-06 |
|   60 |  51 |  52 |  67 |    3.703 |   -0.574 |   -0.715 |   4.208 |  1.92e-05 | -1.17e-05 | -1.03e-05 |
|   61 |  26 |  27 |  68 |    3.941 |   -0.457 |   -0.765 |   4.393 |  2.00e-05 | -1.17e-05 | -1.10e-05 |
|   62 |  73 |  83 | 103 |   11.359 |    2.661 |   -0.801 |  10.383 |  4.82e-05 | -1.45e-05 | -1.16e-05 |
|   63 |  28 |  29 |  69 |    6.136 |   -0.179 |   -0.232 |   6.241 |  2.99e-05 | -1.56e-05 | -3.35e-06 |
|   64 |  53 |  54 |  70 |    5.655 |   -0.159 |   -0.144 |   5.742 |  2.76e-05 | -1.44e-05 | -2.08e-06 |
|   65 |  30 |  31 |  81 |    6.630 |   -0.033 |   -0.032 |   6.647 |  3.20e-05 | -1.61e-05 | -4.57e-07 |
|   66 |  55 |  56 |  82 |    6.142 |    0.257 |   -0.197 |   6.027 |  2.89e-05 | -1.35e-05 | -2.84e-06 |
|   67 | 106 | 140 | 172 |   13.172 |    2.700 |   -0.085 |  12.052 |  5.68e-05 | -1.87e-05 | -1.22e-06 |
|   68 |  18 |  78 | 142 |    5.035 |    0.127 |    0.876 |   5.199 |  2.39e-05 | -1.15e-05 |  1.26e-05 |
|   69 | 130 |  66 | 169 |    5.883 |   -0.134 |    1.196 |   6.301 |  2.86e-05 | -1.48e-05 |  1.73e-05 |
|   70 | 140 | 106 | 171 |   12.845 |    1.511 |    0.063 |  12.160 |  5.81e-05 | -2.36e-05 |  9.13e-07 |
|   71 |  52 |  53 | 135 |    5.023 |   -0.359 |   -0.339 |   5.244 |  2.50e-05 | -1.38e-05 | -4.88e-06 |
|   72 |  27 |  28 | 133 |    5.313 |   -0.417 |   -0.460 |   5.590 |  2.65e-05 | -1.48e-05 | -6.64e-06 |
|   73 | 120 | 118 | 121 |    7.016 |   -0.380 |    0.137 |   7.218 |  3.46e-05 | -1.87e-05 |  1.98e-06 |
|   74 |  39 |  40 |  71 |    6.509 |   -0.047 |    0.078 |   6.534 |  3.14e-05 | -1.59e-05 |  1.12e-06 |
|   75 |  14 |  15 |  72 |    5.891 |   -0.004 |    0.065 |   5.894 |  2.83e-05 | -1.42e-05 |  9.38e-07 |
|   76 |  50 |  51 | 145 |    1.751 |    0.287 |   -0.771 |   2.104 |  7.73e-06 | -2.83e-06 | -1.11e-05 |
|   77 | 105 |  75 | 106 |   11.964 |    3.038 |    0.956 |  10.898 |  5.02e-05 | -1.42e-05 |  1.38e-05 |
|   78 |  97 |  98 | 102 |    7.107 |    0.180 |    0.175 |   7.025 |  3.37e-05 | -1.62e-05 |  2.53e-06 |
|   79 | 120 | 121 | 124 |    6.773 |   -0.366 |    0.155 |   6.968 |  3.34e-05 | -1.80e-05 |  2.24e-06 |
|   80 | 128 |  70 | 189 |    6.276 |   -0.063 |   -0.087 |   6.310 |  3.03e-05 | -1.54e-05 | -1.25e-06 |
|   81 |  73 | 103 | 138 |   13.633 |    2.271 |   -1.023 |  12.775 |  6.01e-05 | -2.19e-05 | -1.48e-05 |
|   82 | 103 | 140 | 171 |   12.713 |    1.435 |   -0.131 |  12.062 |  5.77e-05 | -2.37e-05 | -1.89e-06 |
|   83 | 106 |  75 | 141 |   13.646 |    2.182 |    0.980 |  12.810 |  6.04e-05 | -2.23e-05 |  1.41e-05 |
|   84 | 145 |  67 | 146 |    4.796 |   -0.856 |   -1.402 |   5.808 |  2.51e-05 | -1.56e-05 | -2.02e-05 |
|   85 |  97 |  96 |  98 |    7.183 |   -0.209 |   -0.006 |   7.290 |  3.50e-05 | -1.83e-05 | -8.77e-08 |
|   86 | 121 | 118 | 122 |    7.006 |   -0.410 |   -0.031 |   7.220 |  3.47e-05 | -1.88e-05 | -4.47e-07 |
|   87 |  98 |  96 | 108 |    7.203 |   -0.134 |   -0.096 |   7.273 |  3.50e-05 | -1.80e-05 | -1.39e-06 |
|   88 | 103 |  83 | 131 |   11.478 |    2.722 |    0.207 |  10.394 |  4.86e-05 | -1.45e-05 |  2.99e-06 |
|   89 | 108 | 190 | 203 |    7.240 |   -0.200 |   -0.228 |   7.352 |  3.53e-05 | -1.84e-05 | -3.29e-06 |
|   90 | 121 | 122 | 123 |    6.778 |   -0.396 |   -0.071 |   6.985 |  3.35e-05 | -1.82e-05 | -1.02e-06 |
|   91 |  47 |  48 | 138 |   14.975 |    1.334 |   -0.649 |  14.398 |  6.88e-05 | -2.96e-05 | -9.35e-06 |
|   92 |  48 |  73 | 138 |   12.232 |   -0.619 |   -1.326 |  12.762 |  6.03e-05 | -3.24e-05 | -1.91e-05 |
|   93 |  98 | 108 | 109 |    7.022 |    0.177 |   -0.252 |   6.949 |  3.33e-05 | -1.60e-05 | -3.63e-06 |
|   94 |  47 | 138 | 141 |   12.875 |   -0.392 |   -0.023 |  13.076 |  6.28e-05 | -3.28e-05 | -3.30e-07 |
|   95 |  21 |  22 |  77 |   14.628 |    1.451 |    0.545 |  13.991 |  6.68e-05 | -2.82e-05 |  7.86e-06 |
|   96 |  23 |  79 | 139 |   12.396 |   -0.598 |   -1.291 |  12.901 |  6.10e-05 | -3.27e-05 | -1.86e-05 |
|   97 |   9 |  46 |  75 |   18.210 |    3.471 |    2.696 |  17.385 |  7.92e-05 | -2.71e-05 |  3.89e-05 |
|   98 |  23 |   4 |  79 |   18.221 |    3.409 |   -2.659 |  17.399 |  7.94e-05 | -2.74e-05 | -3.84e-05 |
|   99 |  22 |  23 | 139 |   14.947 |    1.300 |   -0.625 |  14.382 |  6.87e-05 | -2.97e-05 | -9.02e-06 |
|  100 |  77 |  22 | 139 |   12.758 |   -0.275 |   -0.078 |  12.898 |  6.20e-05 | -3.20e-05 | -1.12e-06 |
|  101 |  16 |  17 |  65 |    5.064 |   -0.304 |    0.370 |   5.262 |  2.51e-05 | -1.36e-05 |  5.34e-06 |
|  102 |  77 | 139 | 140 |   13.852 |    1.894 |    0.013 |  13.008 |  6.20e-05 | -2.42e-05 |  1.84e-07 |
|  103 |  41 |  42 |  66 |    5.398 |   -0.163 |    0.369 |   5.518 |  2.63e-05 | -1.38e-05 |  5.32e-06 |
|  104 |  48 |  10 |  73 |   18.301 |    3.474 |   -2.710 |  17.478 |  7.96e-05 | -2.73e-05 | -3.91e-05 |
|  105 |  46 |  47 | 141 |   15.003 |    1.360 |    0.611 |  14.410 |  6.89e-05 | -2.95e-05 |  8.81e-06 |
|  106 |  75 |  46 | 141 |   12.327 |   -0.607 |    1.301 |  12.840 |  6.07e-05 | -3.25e-05 |  1.88e-05 |
|  107 |  66 | 129 | 181 |    6.122 |   -0.283 |    0.417 |   6.310 |  3.01e-05 | -1.61e-05 |  6.01e-06 |
|  108 | 117 | 118 | 120 |    6.860 |   -0.643 |    0.252 |   7.217 |  3.45e-05 | -1.96e-05 |  3.63e-06 |
|  109 | 117 | 116 | 118 |    7.382 |   -0.612 |    0.238 |   7.717 |  3.70e-05 | -2.07e-05 |  3.43e-06 |
|  110 |  51 |  67 | 145 |    5.323 |    0.110 |   -0.920 |   5.505 |  2.53e-05 | -1.23e-05 | -1.33e-05 |
|  111 |  71 | 129 | 200 |    6.581 |   -0.158 |    0.254 |   6.676 |  3.20e-05 | -1.66e-05 |  3.67e-06 |
|  112 |  95 |  96 |  97 |    7.237 |   -0.492 |    0.134 |   7.499 |  3.60e-05 | -1.98e-05 |  1.93e-06 |
|  113 | 123 | 122 | 125 |    6.879 |   -0.208 |   -0.141 |   6.989 |  3.36e-05 | -1.75e-05 | -2.03e-06 |
|  114 | 109 | 108 | 128 |    7.000 |    0.121 |   -0.170 |   6.946 |  3.34e-05 | -1.62e-05 | -2.45e-06 |
|  115 |  95 |  97 | 107 |    7.299 |   -0.381 |    0.239 |   7.508 |  3.60e-05 | -1.94e-05 |  3.45e-06 |
|  116 | 114 | 112 | 132 |    9.157 |   -0.966 |   -0.373 |   9.698 |  4.63e-05 | -2.67e-05 | -5.38e-06 |
|  117 | 119 | 114 | 132 |    8.027 |   -1.340 |   -0.321 |   8.792 |  4.18e-05 | -2.57e-05 | -4.64e-06 |
|  118 |  95 |  94 |  96 |    7.544 |   -0.677 |    0.034 |   7.904 |  3.79e-05 | -2.14e-05 |  4.85e-07 |
|  119 |  69 |  29 | 161 |    6.599 |    0.067 |   -0.174 |   6.573 |  3.16e-05 | -1.55e-05 | -2.51e-06 |
|  120 |  30 |  81 | 161 |    6.619 |    0.021 |   -0.059 |   6.609 |  3.18e-05 | -1.58e-05 | -8.48e-07 |
|  121 |  77 | 131 | 177 |   14.063 |    3.029 |    1.648 |  13.134 |  6.03e-05 | -1.92e-05 |  2.38e-05 |
|  122 |  33 |  34 | 148 |    6.672 |   -0.043 |   -0.016 |   6.693 |  3.22e-05 | -1.62e-05 | -2.25e-07 |
|  123 | 116 | 114 | 119 |    8.013 |   -0.936 |   -0.147 |   8.523 |  4.08e-05 | -2.38e-05 | -2.12e-06 |
|  124 |  17 |  18 | 142 |    3.703 |   -0.511 |    0.702 |   4.165 |  1.90e-05 | -1.14e-05 |  1.01e-05 |
|  125 |  94 |  92 | 104 |    8.056 |   -1.110 |   -0.322 |   8.682 |  4.14e-05 | -2.47e-05 | -4.65e-06 |
|  126 |  38 |  39 | 153 |    6.642 |   -0.045 |    0.030 |   6.664 |  3.20e-05 | -1.62e-05 |  4.29e-07 |
|  127 |  13 |  14 | 154 |    6.090 |    0.207 |    0.231 |   6.002 |  2.88e-05 | -1.36e-05 |  3.33e-06 |
|  128 |  58 |  59 | 150 |    6.554 |    3.277 |   -0.458 |   5.731 |  2.36e-05 |  0.00e+00 | -6.61e-06 |
|  129 | 117 | 120 | 129 |    7.016 |   -0.311 |    0.386 |   7.208 |  3.45e-05 | -1.84e-05 |  5.56e-06 |
|  130 |  72 |  15 | 160 |    6.273 |    0.084 |    0.023 |   6.231 |  3.00e-05 | -1.47e-05 |  3.28e-07 |
|  131 |  36 |  37 |  99 |    6.658 |   -0.009 |    0.012 |   6.663 |  3.20e-05 | -1.60e-05 |  1.68e-07 |
|  132 |  61 |  62 | 100 |    6.714 |    3.357 |    0.952 |   6.044 |  2.42e-05 |  0.00e+00 |  1.37e-05 |
|  133 |  35 |  36 | 149 |    6.677 |   -0.048 |    0.014 |   6.701 |  3.22e-05 | -1.63e-05 |  2.01e-07 |
|  134 |  60 |  61 | 147 |    6.578 |    3.289 |    0.475 |   5.756 |  2.37e-05 |  0.00e+00 |  6.85e-06 |
|  135 |  34 |  35 |  63 |    6.697 |   -0.073 |   -0.001 |   6.734 |  3.24e-05 | -1.64e-05 | -1.11e-08 |
|  136 |  59 |  60 |  64 |    6.657 |    3.329 |    0.026 |   5.766 |  2.40e-05 |  0.00e+00 |  3.76e-07 |
|  137 |  76 |  75 | 105 |   10.770 |    1.634 |    0.391 |  10.076 |  4.79e-05 | -1.80e-05 |  5.64e-06 |
|  138 | 129 |  66 | 180 |    6.562 |   -0.460 |    0.672 |   6.903 |  3.27e-05 | -1.80e-05 |  9.69e-06 |
|  139 |  73 |  74 |  83 |   11.251 |    1.764 |   -0.422 |  10.506 |  4.98e-05 | -1.86e-05 | -6.09e-06 |
|  140 | 190 | 136 | 203 |    6.581 |   -0.861 |   -0.459 |   7.096 |  3.37e-05 | -2.00e-05 | -6.62e-06 |
|  141 |  93 |  94 |  95 |    7.499 |   -1.072 |    0.203 |   8.096 |  3.86e-05 | -2.32e-05 |  2.93e-06 |
|  142 |  79 |   4 |  80 |   11.708 |    3.086 |   -2.188 |  11.173 |  4.89e-05 | -1.33e-05 | -3.16e-05 |
|  143 |  91 |  93 | 126 |    8.464 |   -0.703 |    0.855 |   8.960 |  4.24e-05 | -2.37e-05 |  1.23e-05 |
|  144 |   9 |  75 |  76 |   11.788 |    3.222 |    2.195 |  11.217 |  4.89e-05 | -1.28e-05 |  3.17e-05 |
|  145 | 136 | 104 | 178 |    6.595 |   -0.955 |   -0.763 |   7.243 |  3.40e-05 | -2.04e-05 | -1.10e-05 |
|  146 | 102 |  98 | 165 |    6.954 |    0.525 |   -0.054 |   6.708 |  3.22e-05 | -1.42e-05 | -7.82e-07 |
|  147 |  84 |  90 | 137 |   10.372 |    0.072 |   -0.038 |  10.337 |  4.97e-05 | -2.46e-05 | -5.52e-07 |
|  148 |  84 |  87 |  90 |    9.627 |   -0.669 |    0.302 |   9.992 |  4.79e-05 | -2.64e-05 |  4.36e-06 |
|  149 | 121 | 123 | 163 |    6.831 |   -0.248 |   -0.005 |   6.958 |  3.34e-05 | -1.76e-05 | -7.41e-08 |
|  150 | 115 | 116 | 117 |    7.224 |   -1.020 |    0.411 |   7.817 |  3.72e-05 | -2.23e-05 |  5.92e-06 |
|  151 |  16 |  65 | 160 |    6.281 |    0.123 |    0.282 |   6.240 |  2.99e-05 | -1.45e-05 |  4.06e-06 |
|  152 |  93 |  92 |  94 |    8.144 |   -0.978 |    0.201 |   8.682 |  4.15e-05 | -2.43e-05 |  2.90e-06 |
|  153 | 145 | 101 | 195 |    4.685 |    2.152 |   -2.750 |   6.260 |  1.74e-05 | -9.16e-07 | -3.97e-05 |
|  154 |   5 |  25 | 198 |    0.074 |    1.094 |   -0.213 |   1.121 | -2.27e-06 |  5.08e-06 | -3.07e-06 |
|  155 |  78 | 143 | 144 |    5.953 |   -0.512 |    1.798 |   6.960 |  2.98e-05 | -1.68e-05 |  2.59e-05 |
|  156 | 122 | 118 | 162 |    6.979 |   -0.662 |   -0.131 |   7.336 |  3.51e-05 | -2.00e-05 | -1.89e-06 |
|  157 | 113 | 115 | 130 |    7.966 |   -0.693 |    1.084 |   8.543 |  4.00e-05 | -2.25e-05 |  1.56e-05 |
|  158 |  34 |  63 | 148 |    6.661 |   -0.106 |   -0.015 |   6.715 |  3.23e-05 | -1.65e-05 | -2.14e-07 |
|  159 |  59 |  64 | 150 |    5.757 |    1.607 |   -0.241 |   5.162 |  2.38e-05 | -6.12e-06 | -3.48e-06 |
|  160 | 115 | 114 | 116 |    7.967 |   -0.941 |    0.405 |   8.506 |  4.06e-05 | -2.37e-05 |  5.84e-06 |
|  161 |  36 |  99 | 149 |    6.664 |   -0.058 |    0.019 |   6.694 |  3.22e-05 | -1.63e-05 |  2.69e-07 |
|  162 |  61 | 100 | 147 |    5.851 |    1.733 |    0.684 |   5.338 |  2.40e-05 | -5.73e-06 |  9.86e-06 |
|  163 |  63 |  35 | 149 |    6.658 |   -0.120 |    0.013 |   6.719 |  3.23e-05 | -1.66e-05 |  1.90e-07 |
|  164 |  64 |  60 | 147 |    5.853 |    1.778 |    0.264 |   5.217 |  2.39e-05 | -5.52e-06 |  3.81e-06 |
|  165 | 123 | 125 | 158 |    6.606 |   -0.294 |   -0.148 |   6.762 |  3.25e-05 | -1.73e-05 | -2.13e-06 |
|  166 | 131 |  83 | 137 |   11.077 |    1.804 |   -0.096 |  10.296 |  4.89e-05 | -1.80e-05 | -1.38e-06 |
|  167 |  73 |  10 |  74 |   10.889 |    3.033 |   -2.203 |  10.455 |  4.51e-05 | -1.16e-05 | -3.18e-05 |
|  168 |  66 | 130 | 180 |    6.728 |   -0.368 |    0.812 |   7.061 |  3.32e-05 | -1.79e-05 |  1.17e-05 |
|  169 |  91 |  92 |  93 |    7.927 |   -1.375 |    0.366 |   8.720 |  4.14e-05 | -2.57e-05 |  5.28e-06 |
|  170 |  43 |  85 | 169 |    5.285 |    0.247 |    1.064 |   5.485 |  2.48e-05 | -1.15e-05 |  1.53e-05 |
|  171 | 122 | 162 | 175 |    7.160 |   -0.317 |   -0.268 |   7.339 |  3.52e-05 | -1.87e-05 | -3.86e-06 |
|  172 | 140 | 103 | 197 |   12.908 |    1.777 |   -0.071 |  12.119 |  5.78e-05 | -2.25e-05 | -1.02e-06 |
|  173 |  95 | 107 | 156 |    6.827 |   -0.788 |    0.397 |   7.285 |  3.47e-05 | -2.02e-05 |  5.72e-06 |
|  174 |  91 |  87 |  92 |    8.875 |   -1.343 |    0.285 |   9.629 |  4.59e-05 | -2.78e-05 |  4.11e-06 |
|  175 | 119 | 132 | 152 |    8.166 |   -0.658 |   -0.978 |   8.681 |  4.08e-05 | -2.28e-05 | -1.41e-05 |
|  176 |  76 | 105 | 110 |   10.489 |    1.023 |    0.642 |  10.078 |  4.80e-05 | -2.03e-05 |  9.25e-06 |
|  177 | 137 |  90 | 166 |   10.193 |    0.371 |    1.121 |  10.199 |  4.81e-05 | -2.27e-05 |  1.62e-05 |
|  178 | 113 | 114 | 115 |    7.701 |   -1.296 |    0.545 |   8.477 |  4.01e-05 | -2.47e-05 |  7.86e-06 |
|  179 |  90 |  87 |  91 |    9.566 |   -0.969 |    0.195 |  10.091 |  4.83e-05 | -2.77e-05 |  2.81e-06 |
|  180 |  20 |   3 | 143 |    6.304 |    3.714 |    4.061 |   8.921 |  2.14e-05 |  2.70e-06 |  5.86e-05 |
|  181 |  83 |  74 |  84 |   10.525 |    0.726 |   -0.838 |  10.285 |  4.89e-05 | -2.18e-05 | -1.21e-05 |
|  182 | 113 | 112 | 114 |    8.861 |   -1.119 |    0.537 |   9.516 |  4.53e-05 | -2.67e-05 |  7.74e-06 |
|  183 |  39 |  71 | 153 |    6.606 |    0.002 |    0.059 |   6.606 |  3.18e-05 | -1.59e-05 |  8.53e-07 |
|  184 |  14 |  72 | 154 |    6.600 |    0.044 |    0.088 |   6.579 |  3.16e-05 | -1.57e-05 |  1.27e-06 |
|  185 | 116 | 119 | 162 |    7.180 |   -1.103 |   -0.251 |   7.802 |  3.72e-05 | -2.26e-05 | -3.62e-06 |
|  186 |  80 |   4 |  88 |    9.544 |    0.979 |   -1.382 |   9.404 |  4.35e-05 | -1.82e-05 | -1.99e-05 |
|  187 |  83 |  84 | 137 |   10.707 |    1.142 |    0.301 |  10.198 |  4.87e-05 | -2.02e-05 |  4.35e-06 |
|  188 |  33 | 148 | 157 |    6.664 |   -0.064 |   -0.018 |   6.696 |  3.22e-05 | -1.63e-05 | -2.54e-07 |
|  189 |  68 | 133 | 184 |    5.482 |   -0.895 |   -0.975 |   6.214 |  2.85e-05 | -1.75e-05 | -1.41e-05 |
|  190 | 126 |  93 | 156 |    6.738 |   -1.396 |    0.816 |   7.665 |  3.57e-05 | -2.29e-05 |  1.18e-05 |
|  191 |  45 |   9 | 151 |    6.190 |    3.497 |    4.277 |   9.153 |  2.14e-05 |  1.93e-06 |  6.17e-05 |
|  192 |  58 | 150 | 159 |    5.826 |    1.705 |   -0.685 |   5.322 |  2.39e-05 | -5.81e-06 | -9.88e-06 |
|  193 | 146 |  67 | 178 |    6.968 |   -0.042 |   -1.306 |   7.346 |  3.36e-05 | -1.70e-05 | -1.88e-05 |
|  194 |  32 |  33 | 157 |    6.657 |   -0.007 |   -0.009 |   6.660 |  3.20e-05 | -1.60e-05 | -1.30e-07 |
|  195 |  57 |  58 | 159 |    6.706 |    3.353 |   -0.960 |   6.041 |  2.42e-05 |  0.00e+00 | -1.38e-05 |
|  196 | 104 | 136 | 190 |    7.547 |   -0.438 |   -0.418 |   7.809 |  3.73e-05 | -2.02e-05 | -6.02e-06 |
|  197 | 135 | 136 | 178 |    6.919 |   -0.022 |   -0.628 |   7.014 |  3.33e-05 | -1.67e-05 | -9.05e-06 |
|  198 |  84 |  86 |  87 |    9.956 |   -0.428 |   -0.751 |  10.260 |  4.89e-05 | -2.60e-05 | -1.08e-05 |
|  199 |  93 |  95 | 156 |    7.818 |   -0.466 |    0.483 |   8.105 |  3.87e-05 | -2.10e-05 |  6.97e-06 |
|  200 |  84 |  74 |  86 |    9.512 |   -0.070 |   -0.512 |   9.589 |  4.59e-05 | -2.32e-05 | -7.39e-06 |
|  201 | 111 | 112 | 113 |    8.812 |   -1.090 |    0.523 |   9.448 |  4.50e-05 | -2.64e-05 |  7.54e-06 |
|  202 |  99 | 153 | 170 |    6.655 |   -0.059 |    0.049 |   6.685 |  3.21e-05 | -1.63e-05 |  7.10e-07 |
|  203 |  10 |  49 | 101 |    6.289 |    3.837 |   -4.038 |   8.891 |  2.10e-05 |  3.33e-06 | -5.82e-05 |
|  204 |  15 |  16 | 160 |    5.555 |   -0.262 |    0.151 |   5.696 |  2.73e-05 | -1.46e-05 |  2.18e-06 |
|  205 |  50 | 145 | 195 |    1.543 |   -0.171 |   -0.552 |   1.894 |  7.83e-06 | -4.53e-06 | -7.97e-06 |
|  206 |  76 | 110 | 111 |   10.164 |    0.205 |    0.393 |  10.086 |  4.84e-05 | -2.34e-05 |  5.66e-06 |
|  207 | 111 | 110 | 112 |   10.087 |   -0.506 |    0.602 |  10.401 |  4.97e-05 | -2.67e-05 |  8.68e-06 |
|  208 |  80 |  88 |  89 |   10.002 |    0.183 |   -1.718 |  10.349 |  4.76e-05 | -2.32e-05 | -2.48e-05 |
|  209 | 102 | 192 | 196 |    6.901 |    1.247 |    0.284 |   6.389 |  3.02e-05 | -1.06e-05 |  4.10e-06 |
|  210 |  86 | 146 | 168 |    9.049 |   -0.785 |   -1.053 |   9.640 |  4.54e-05 | -2.55e-05 | -1.52e-05 |
|  211 |  19 |   2 | 193 |    0.085 |    0.596 |    0.206 |   0.662 | -1.02e-06 |  2.66e-06 |  2.97e-06 |
|  212 |  44 |   8 | 194 |    0.114 |    0.549 |    0.191 |   0.601 | -7.71e-07 |  2.36e-06 |  2.76e-06 |
|  213 |  29 |  30 | 161 |    6.448 |   -0.121 |   -0.109 |   6.513 |  3.13e-05 | -1.61e-05 | -1.58e-06 |
|  214 |  70 |  54 | 189 |    6.272 |    0.034 |   -0.131 |   6.260 |  3.01e-05 | -1.49e-05 | -1.89e-06 |
|  215 |  55 |  82 | 189 |    6.340 |   -0.042 |   -0.022 |   6.361 |  3.06e-05 | -1.54e-05 | -3.24e-07 |
|  216 |  89 |  88 | 127 |    7.324 |   -0.903 |   -1.490 |   8.230 |  3.74e-05 | -2.19e-05 | -2.15e-05 |
|  217 |  11 |  50 | 195 |    0.082 |    0.578 |   -0.207 |   0.649 | -9.93e-07 |  2.58e-06 | -2.98e-06 |
|  218 | 118 | 116 | 162 |    7.394 |   -0.611 |   -0.081 |   7.719 |  3.70e-05 | -2.07e-05 | -1.17e-06 |
|  219 |  90 | 144 | 166 |    9.855 |   -0.316 |    0.961 |  10.154 |  4.81e-05 | -2.52e-05 |  1.39e-05 |
|  220 | 124 | 121 | 163 |    6.782 |   -0.267 |    0.077 |   6.920 |  3.32e-05 | -1.76e-05 |  1.12e-06 |
|  221 | 100 | 154 | 196 |    6.544 |    0.808 |    0.811 |   6.337 |  2.95e-05 | -1.18e-05 |  1.17e-05 |
|  222 | 155 | 102 | 196 |    6.762 |    0.424 |    0.408 |   6.598 |  3.15e-05 | -1.42e-05 |  5.88e-06 |
|  223 | 154 |  72 | 155 |    6.698 |    0.380 |    0.387 |   6.550 |  3.13e-05 | -1.43e-05 |  5.58e-06 |
|  224 |  71 |  40 | 181 |    6.401 |    0.025 |    0.146 |   6.393 |  3.07e-05 | -1.53e-05 |  2.10e-06 |
|  225 |  66 |  42 | 169 |    5.469 |    0.077 |    0.474 |   5.492 |  2.61e-05 | -1.28e-05 |  6.84e-06 |
|  226 | 134 |  69 | 175 |    6.915 |   -0.144 |   -0.445 |   7.030 |  3.36e-05 | -1.73e-05 | -6.42e-06 |
|  227 | 157 | 148 | 158 |    6.660 |   -0.066 |   -0.042 |   6.694 |  3.22e-05 | -1.63e-05 | -6.08e-07 |
|  228 | 162 | 134 | 175 |    6.576 |   -0.949 |   -0.479 |   7.146 |  3.39e-05 | -2.04e-05 | -6.91e-06 |
|  229 |  70 | 128 | 203 |    6.629 |   -0.245 |   -0.328 |   6.779 |  3.25e-05 | -1.71e-05 | -4.73e-06 |
|  230 | 152 |  68 | 184 |    6.693 |   -0.795 |   -1.267 |   7.454 |  3.41e-05 | -1.99e-05 | -1.83e-05 |
|  231 | 131 |  77 | 197 |   11.866 |    1.389 |    0.868 |  11.336 |  5.37e-05 | -2.18e-05 |  1.25e-05 |
|  232 |  78 |  19 | 193 |    1.543 |   -0.178 |    0.571 |   1.914 |  7.85e-06 | -4.57e-06 |  8.23e-06 |
|  233 |  97 | 102 | 176 |    7.031 |    0.037 |    0.194 |   7.021 |  3.37e-05 | -1.67e-05 |  2.80e-06 |
|  234 |  41 |  66 | 181 |    6.359 |    0.094 |    0.334 |   6.339 |  3.03e-05 | -1.48e-05 |  4.81e-06 |
|  235 | 127 |  88 | 164 |    8.112 |    0.368 |   -2.208 |   8.808 |  3.81e-05 | -1.77e-05 | -3.18e-05 |
|  236 | 140 | 139 | 172 |   12.025 |    0.618 |   -0.425 |  11.752 |  5.63e-05 | -2.59e-05 | -6.13e-06 |
|  237 | 104 |  92 | 168 |    8.281 |   -1.305 |   -0.460 |   9.040 |  4.30e-05 | -2.62e-05 | -6.64e-06 |
|  238 | 143 |  78 | 193 |    4.622 |    2.241 |    2.769 |   6.247 |  1.68e-05 | -3.38e-07 |  3.99e-05 |
|  239 |  21 |  77 | 177 |   12.642 |   -0.406 |    1.306 |  13.047 |  6.18e-05 | -3.23e-05 |  1.88e-05 |
|  240 | 108 |  96 | 190 |    7.097 |   -0.485 |   -0.241 |   7.363 |  3.53e-05 | -1.94e-05 | -3.47e-06 |
|  241 | 155 |  72 | 176 |    6.686 |   -0.099 |    0.276 |   6.753 |  3.24e-05 | -1.65e-05 |  3.98e-06 |
|  242 |  98 | 109 | 165 |    6.842 |    0.340 |   -0.126 |   6.682 |  3.21e-05 | -1.48e-05 | -1.81e-06 |
|  243 | 119 | 152 | 184 |    7.288 |   -0.746 |   -0.821 |   7.818 |  3.68e-05 | -2.11e-05 | -1.18e-05 |
|  244 | 106 | 141 | 171 |   12.566 |    0.718 |    0.221 |  12.228 |  5.87e-05 | -2.68e-05 |  3.19e-06 |
|  245 |  81 | 157 | 158 |    6.655 |   -0.088 |   -0.044 |   6.700 |  3.22e-05 | -1.64e-05 | -6.38e-07 |
|  246 | 138 | 103 | 171 |   12.609 |    0.798 |   -0.296 |  12.241 |  5.87e-05 | -2.65e-05 | -4.26e-06 |
|  247 | 154 | 155 | 196 |    6.759 |    0.616 |    0.312 |   6.496 |  3.10e-05 | -1.33e-05 |  4.50e-06 |
|  248 | 113 | 130 | 167 |    6.863 |   -1.197 |    1.200 |   7.814 |  3.59e-05 | -2.23e-05 |  1.73e-05 |
|  249 |   7 |  38 | 185 |    6.671 |   -0.010 |   -0.001 |   6.676 |  3.21e-05 | -1.61e-05 | -1.46e-08 |
|  250 |   1 |  13 | 186 |    8.443 |    1.800 |    1.594 |   8.182 |  3.63e-05 | -1.16e-05 |  2.30e-05 |
|  251 |  85 |  44 | 194 |    1.811 |   -0.120 |    0.626 |   2.165 |  8.99e-06 | -4.93e-06 |  9.03e-06 |
|  252 | 102 | 155 | 176 |    6.925 |    0.521 |    0.270 |   6.696 |  3.20e-05 | -1.41e-05 |  3.89e-06 |
|  253 |  31 |   6 | 187 |    6.666 |   -0.017 |   -0.003 |   6.675 |  3.21e-05 | -1.61e-05 | -4.69e-08 |
|  254 |  56 |  12 | 188 |    8.496 |    1.888 |   -1.579 |   8.197 |  3.63e-05 | -1.13e-05 | -2.28e-05 |
|  255 |  94 | 104 | 190 |    7.218 |   -1.123 |   -0.403 |   7.871 |  3.74e-05 | -2.27e-05 | -5.81e-06 |
|  256 | 117 | 129 | 180 |    6.558 |   -0.719 |    0.544 |   7.009 |  3.33e-05 | -1.92e-05 |  7.84e-06 |
|  257 | 151 |  85 | 194 |    4.779 |    2.359 |    2.714 |   6.263 |  1.73e-05 | -1.48e-07 |  3.91e-05 |
|  258 |  37 |   7 | 185 |    6.659 |    0.006 |   -0.001 |   6.656 |  3.20e-05 | -1.60e-05 | -1.47e-08 |
|  259 |  62 |   1 | 186 |    7.243 |    3.622 |    1.537 |   6.815 |  2.61e-05 |  0.00e+00 |  2.22e-05 |
|  260 |   6 |  32 | 187 |    6.665 |    0.006 |    0.000 |   6.662 |  3.20e-05 | -1.60e-05 |  3.34e-09 |
|  261 |  12 |  57 | 188 |    7.267 |    3.633 |   -1.552 |   6.843 |  2.62e-05 |  0.00e+00 | -2.24e-05 |
|  262 |  87 |  86 | 168 |    8.587 |   -1.126 |   -0.539 |   9.249 |  4.40e-05 | -2.61e-05 | -7.77e-06 |
|  263 | 130 | 115 | 180 |    6.470 |   -1.164 |    0.989 |   7.327 |  3.39e-05 | -2.12e-05 |  1.43e-05 |
|  264 | 158 | 148 | 183 |    6.647 |   -0.173 |   -0.055 |   6.736 |  3.24e-05 | -1.68e-05 | -7.97e-07 |
|  265 |   4 |  24 | 201 |    4.440 |    3.781 |   -3.557 |   7.428 |  1.23e-05 |  7.50e-06 | -5.13e-05 |
|  266 | 144 | 143 | 166 |    8.276 |   -0.275 |    2.542 |   9.498 |  4.04e-05 | -2.12e-05 |  3.67e-05 |
|  267 |   9 |  76 | 202 |    9.233 |    0.915 |    1.322 |   9.104 |  4.22e-05 | -1.78e-05 |  1.91e-05 |
|  268 | 123 | 158 | 183 |    6.787 |   -0.092 |   -0.082 |   6.835 |  3.29e-05 | -1.68e-05 | -1.19e-06 |
|  269 | 143 |   3 | 166 |    9.493 |    0.732 |    1.874 |   9.708 |  4.39e-05 | -1.93e-05 |  2.70e-05 |
|  270 |   2 |  20 | 193 |    1.026 |   -0.047 |    0.330 |   1.195 |  5.04e-06 | -2.69e-06 |  4.76e-06 |
|  271 | 146 |  86 | 174 |    6.880 |   -1.382 |   -1.783 |   8.264 |  3.64e-05 | -2.32e-05 | -2.57e-05 |
|  272 |  38 | 153 | 185 |    6.654 |    0.004 |    0.010 |   6.652 |  3.20e-05 | -1.60e-05 |  1.48e-07 |
|  273 |  13 | 154 | 186 |    6.734 |   -0.395 |    0.611 |   7.020 |  3.33e-05 | -1.81e-05 |  8.81e-06 |
|  274 | 101 | 145 | 174 |    6.152 |   -0.555 |   -1.603 |   7.020 |  3.09e-05 | -1.75e-05 | -2.31e-05 |
|  275 |   8 |  45 | 194 |    1.078 |    0.020 |    0.385 |   1.260 |  5.14e-06 | -2.50e-06 |  5.56e-06 |
|  276 |  49 |  11 | 195 |    1.023 |   -0.045 |   -0.321 |   1.184 |  5.02e-06 | -2.67e-06 | -4.63e-06 |
|  277 | 170 | 153 | 179 |    6.622 |   -0.052 |    0.097 |   6.651 |  3.20e-05 | -1.62e-05 |  1.40e-06 |
|  278 |  82 | 159 | 173 |    6.511 |    0.608 |   -0.758 |   6.366 |  2.98e-05 | -1.27e-05 | -1.09e-05 |
|  279 |  88 |   4 | 201 |    9.979 |    1.796 |   -3.021 |  10.595 |  4.37e-05 | -1.54e-05 | -4.36e-05 |
|  280 | 120 | 124 | 200 |    6.857 |   -0.161 |    0.237 |   6.951 |  3.34e-05 | -1.73e-05 |  3.42e-06 |
|  281 | 151 |   9 | 202 |    9.526 |    0.347 |    1.971 |   9.961 |  4.50e-05 | -2.12e-05 |  2.84e-05 |
|  282 | 153 |  99 | 185 |    6.618 |   -0.037 |    0.035 |   6.637 |  3.19e-05 | -1.61e-05 |  5.11e-07 |
|  283 | 154 | 100 | 186 |    7.321 |    2.011 |    1.074 |   6.810 |  3.04e-05 | -7.93e-06 |  1.55e-05 |
|  284 | 145 | 146 | 174 |    7.564 |   -0.014 |   -1.819 |   8.201 |  3.64e-05 | -1.83e-05 | -2.62e-05 |
|  285 |  81 |  31 | 187 |    6.666 |    0.007 |   -0.016 |   6.663 |  3.20e-05 | -1.60e-05 | -2.26e-07 |
|  286 |  82 |  56 | 188 |    6.525 |   -0.512 |   -0.502 |   6.851 |  3.26e-05 | -1.81e-05 | -7.24e-06 |
|  287 | 102 | 165 | 192 |    6.747 |    0.967 |    0.247 |   6.333 |  3.01e-05 | -1.16e-05 |  3.56e-06 |
|  288 | 111 | 113 | 167 |    8.893 |   -0.755 |    1.507 |   9.653 |  4.46e-05 | -2.50e-05 |  2.17e-05 |
|  289 |  67 | 135 | 178 |    5.244 |   -0.847 |   -0.962 |   5.953 |  2.72e-05 | -1.67e-05 | -1.39e-05 |
|  290 | 163 | 123 | 183 |    6.717 |   -0.199 |   -0.045 |   6.819 |  3.28e-05 | -1.71e-05 | -6.49e-07 |
|  291 |  42 |  43 | 169 |    3.696 |   -0.514 |    0.752 |   4.185 |  1.90e-05 | -1.14e-05 |  1.08e-05 |
|  292 | 133 | 134 | 184 |    7.045 |    0.020 |   -0.717 |   7.144 |  3.38e-05 | -1.68e-05 | -1.03e-05 |
|  293 | 128 | 108 | 203 |    6.702 |   -0.169 |   -0.290 |   6.806 |  3.26e-05 | -1.69e-05 | -4.18e-06 |
|  294 |  92 |  87 | 168 |    9.059 |   -1.132 |   -0.533 |   9.719 |  4.63e-05 | -2.72e-05 | -7.69e-06 |
|  295 | 141 | 138 | 171 |   13.806 |    1.467 |   -0.050 |  13.134 |  6.28e-05 | -2.61e-05 | -7.19e-07 |
|  296 | 139 |  79 | 172 |   14.050 |    2.756 |   -1.137 |  13.045 |  6.09e-05 | -2.05e-05 | -1.64e-05 |
|  297 |   3 |  21 | 177 |   19.412 |    3.741 |    3.022 |  18.590 |  8.43e-05 | -2.87e-05 |  4.36e-05 |
|  298 | 142 |  78 | 191 |    4.445 |   -0.963 |    1.489 |   5.624 |  2.37e-05 | -1.53e-05 |  2.15e-05 |
|  299 | 107 |  97 | 176 |    6.805 |   -0.290 |    0.355 |   6.982 |  3.34e-05 | -1.78e-05 |  5.12e-06 |
|  300 | 103 | 131 | 197 |   12.366 |    2.095 |    0.547 |  11.502 |  5.44e-05 | -1.97e-05 |  7.90e-06 |
|  301 | 125 | 122 | 175 |    6.636 |   -0.493 |   -0.261 |   6.911 |  3.31e-05 | -1.83e-05 | -3.76e-06 |
|  302 | 129 | 120 | 200 |    6.526 |   -0.473 |    0.360 |   6.804 |  3.25e-05 | -1.80e-05 |  5.19e-06 |
|  303 |  40 |  41 | 181 |    6.049 |   -0.200 |    0.233 |   6.165 |  2.96e-05 | -1.55e-05 |  3.36e-06 |
|  304 | 172 |  79 | 182 |   11.356 |    2.685 |   -0.740 |  10.360 |  4.81e-05 | -1.44e-05 | -1.07e-05 |
|  305 | 136 |  70 | 203 |    6.991 |   -0.074 |   -0.307 |   7.048 |  3.38e-05 | -1.72e-05 | -4.43e-06 |
|  306 | 149 |  99 | 170 |    6.662 |   -0.061 |    0.047 |   6.692 |  3.22e-05 | -1.63e-05 |  6.74e-07 |
|  307 |  54 |  55 | 189 |    5.756 |    0.027 |   -0.072 |   5.744 |  2.76e-05 | -1.37e-05 | -1.04e-06 |
|  308 |  96 |  94 | 190 |    7.594 |   -0.564 |   -0.216 |   7.900 |  3.79e-05 | -2.10e-05 | -3.11e-06 |
|  309 | 111 | 167 | 202 |    8.540 |   -0.581 |    1.308 |   9.131 |  4.25e-05 | -2.33e-05 |  1.89e-05 |
|  310 | 115 | 117 | 180 |    7.536 |   -0.360 |    0.703 |   7.817 |  3.71e-05 | -1.98e-05 |  1.01e-05 |
|  311 | 126 | 142 | 191 |    7.406 |    0.132 |    1.194 |   7.627 |  3.53e-05 | -1.72e-05 |  1.72e-05 |
|  312 |  77 | 140 | 197 |   12.455 |    1.240 |    0.229 |  11.891 |  5.69e-05 | -2.40e-05 |  3.30e-06 |
|  313 |  79 |  80 | 182 |   11.066 |    1.802 |   -0.537 |  10.326 |  4.89e-05 | -1.79e-05 | -7.74e-06 |
|  314 | 159 | 150 | 173 |    6.971 |    2.278 |   -0.665 |   6.263 |  2.80e-05 | -5.80e-06 | -9.59e-06 |
|  315 |  99 |  37 | 185 |    6.667 |   -0.005 |    0.008 |   6.669 |  3.21e-05 | -1.60e-05 |  1.21e-07 |
|  316 | 100 |  62 | 186 |    5.931 |    1.296 |    1.192 |   5.782 |  2.54e-05 | -8.03e-06 |  1.72e-05 |
|  317 | 157 |  81 | 187 |    6.628 |   -0.043 |   -0.034 |   6.650 |  3.20e-05 | -1.61e-05 | -4.93e-07 |
|  318 | 159 |  82 | 188 |    7.395 |    2.017 |   -1.069 |   6.875 |  3.07e-05 | -8.08e-06 | -1.54e-05 |
|  319 | 148 |  63 | 183 |    6.738 |   -0.069 |   -0.023 |   6.773 |  3.26e-05 | -1.65e-05 | -3.38e-07 |
|  320 | 153 |  71 | 179 |    6.535 |   -0.149 |    0.128 |   6.614 |  3.18e-05 | -1.64e-05 |  1.85e-06 |
|  321 |  64 | 147 | 192 |    6.853 |    2.280 |    0.235 |   6.058 |  2.75e-05 | -5.51e-06 |  3.38e-06 |
|  322 | 182 |  80 | 199 |   10.841 |    1.156 |   -0.713 |  10.386 |  4.93e-05 | -2.05e-05 | -1.03e-05 |
|  323 |  24 |   5 | 198 |    0.274 |   -0.702 |   -0.043 |   0.875 |  3.00e-06 | -4.03e-06 | -6.19e-07 |
|  324 | 165 |  64 | 192 |    6.308 |    1.107 |   -0.059 |   5.834 |  2.77e-05 | -9.84e-06 | -8.51e-07 |
|  325 |  63 | 163 | 183 |    6.674 |   -0.173 |    0.001 |   6.762 |  3.25e-05 | -1.69e-05 |  1.04e-08 |
|  326 |  80 |  89 | 199 |    9.959 |    0.280 |   -0.361 |   9.842 |  4.72e-05 | -2.26e-05 | -5.21e-06 |
|  327 | 147 | 100 | 196 |    6.786 |    2.196 |    0.705 |   6.121 |  2.73e-05 | -5.76e-06 |  1.02e-05 |
|  328 | 192 | 147 | 196 |    6.212 |    0.909 |    0.459 |   5.865 |  2.77e-05 | -1.06e-05 |  6.62e-06 |
|  329 |  78 | 144 | 191 |    7.131 |    0.014 |    1.952 |   7.885 |  3.42e-05 | -1.71e-05 |  2.81e-05 |
|  330 |  32 | 157 | 187 |    6.665 |   -0.014 |   -0.005 |   6.672 |  3.21e-05 | -1.61e-05 | -7.21e-08 |
|  331 |  57 | 159 | 188 |    5.923 |    1.261 |   -1.197 |   5.788 |  2.54e-05 | -8.18e-06 | -1.73e-05 |
|  332 | 164 |  88 | 201 |    3.650 |   -1.093 |   -2.269 |   5.827 |  2.02e-05 | -1.40e-05 | -3.27e-05 |
|  333 |  76 | 111 | 202 |    9.965 |   -0.038 |    1.597 |  10.360 |  4.80e-05 | -2.41e-05 |  2.30e-05 |
|  334 |  20 | 143 | 193 |   -0.527 |   -0.654 |    1.449 |   2.580 | -9.60e-07 | -1.88e-06 |  2.09e-05 |
|  335 |  45 | 151 | 194 |   -0.303 |   -0.795 |    1.307 |   2.368 |  4.57e-07 | -3.10e-06 |  1.88e-05 |
|  336 | 124 | 179 | 200 |    6.547 |   -0.253 |    0.190 |   6.685 |  3.21e-05 | -1.70e-05 |  2.74e-06 |
|  337 |  25 | 164 | 198 |    0.716 |   -0.514 |   -0.460 |   1.335 |  4.68e-06 | -4.20e-06 | -6.64e-06 |
|  338 | 101 |  49 | 195 |   -0.602 |   -0.727 |   -1.485 |   2.659 | -1.15e-06 | -2.05e-06 | -2.14e-05 |
|  339 | 198 | 164 | 201 |    5.076 |    2.735 |   -2.445 |   6.107 |  1.78e-05 |  9.45e-07 | -3.53e-05 |
|  340 | 124 | 170 | 179 |    6.662 |   -0.166 |    0.131 |   6.750 |  3.24e-05 | -1.68e-05 |  1.90e-06 |
|  341 | 179 |  71 | 200 |    6.649 |   -0.088 |    0.153 |   6.699 |  3.22e-05 | -1.64e-05 |  2.21e-06 |
|  342 |  24 | 198 | 201 |   -1.197 |   -0.372 |   -0.807 |   1.754 | -4.86e-06 |  1.09e-06 | -1.16e-05 |
+------+-----+-----+-----+----------+----------+----------+---------+-----------+-----------+-----------+
