
    -------------------------------------------------------------
    -------------- Model input ----------------------------------
    -------------------------------------------------------------

    Model parameters:

    +-------------+----------+
    | Parameter   |    Value |
    |-------------+----------|
    | w [m]       |      0.3 |
    | h [m]       |      0.1 |
    | a [m]       |     0.05 |
    | b [m]       |    0.025 |
    | E [Pa]      | 2.08e+11 |
    | v [-]       |      0.3 |
    | t [-]       |     0.01 |
    +-------------+----------+

    Model boundary conditions:

    +----------+----------------+
    |   Marker |   Displacement |
    |----------+----------------|
    |       80 |              0 |
    +----------+----------------+

    Loads:

    +----------+-----------+------------+
    |   Marker |   qx[N/m] |   qy [N/m] |
    |----------+-----------+------------|
    |       50 |     1e+05 |          0 |
    +----------+-----------+------------+

    -------------------------------------------------------------
    -------------- Results --------------------------------------
    -------------------------------------------------------------

    Model info:

    +---------------------+------+
    | Max element size:   | 0.05 |
    | Dofs per node:      |    2 |
    | Element type:       |    3 |
    | Number of dofs:     |  410 |
    | Number of elements: |  172 |
    | Number of nodes:    |  205 |
    +---------------------+------+

    Summary of results:

    +----------------------+-----------+------+
    | Max displacement:    |  1.87e-05 | [m]  |
    | Min displacement:    | -1.02e-06 | [m]  |
    | Max reaction force:  |       293 | [N]  |
    | Min reaction force:  | -1.24e+03 | [N]  |
    | Sum reaction forces: |    -1e+04 | [N]  |
    | Max vonMises:        |  2.45e+07 | [Pa] |
    | Min vonMises:        |  3.99e+05 | [Pa] |
    +----------------------+-----------+------+

    Results per node:

    +-----+-------+-------+-----------+------------+----------+-----------+-----------+-----------+
    |   N |   dof |   dof |   x_coord |    y_coord |      a_x |       a_y |       R_x |       R_y |
    |     |     x |     y |       [m] |        [m] |     [mm] |      [mm] |      [kN] |      [kN] |
    |-----+-------+-------+-----------+------------+----------+-----------+-----------+-----------|
    |   1 |     1 |     2 |         0 |          0 |        0 |         0 |    -0.845 |    -0.294 |
    |   2 |     3 |     4 |     0.125 |          0 |  0.00407 | -8.36e-06 |  1.14e-16 | -5.68e-17 |
    |   3 |     5 |     6 |     0.125 |      0.025 |  0.00641 |  0.000171 |  4.97e-15 | -7.11e-16 |
    |   4 |     7 |     8 |     0.175 |      0.025 |   0.0121 |   0.00011 |  -4.8e-15 |  1.53e-15 |
    |   5 |     9 | 1e+01 |     0.175 |          0 |   0.0146 | -8.16e-05 |  -2.9e-15 | -1.25e-15 |
    |   6 | 1e+01 | 1e+01 |       0.3 |          0 |   0.0187 |  0.000662 | -9.09e-16 | -3.13e-16 |
    |   7 | 1e+01 | 1e+01 |       0.3 |        0.1 |   0.0187 | -0.000783 | -4.09e-15 |  1.14e-16 |
    |   8 | 2e+01 | 2e+01 |     0.175 |        0.1 |   0.0146 |  2.75e-06 |  2.73e-15 |         0 |
    |   9 | 2e+01 | 2e+01 |     0.175 |      0.075 |   0.0122 | -0.000193 | -7.73e-15 | -6.82e-16 |
    |  10 | 2e+01 | 2e+01 |     0.125 |      0.075 |  0.00641 | -0.000121 | -2.84e-16 | -7.67e-16 |
    |  11 | 2e+01 | 2e+01 |     0.125 |        0.1 |  0.00403 |  1.77e-05 |  1.71e-16 |  1.71e-16 |
    |  12 | 2e+01 | 2e+01 |         0 |        0.1 |        0 |         0 |    -0.845 |     0.293 |
    |  13 | 2e+01 | 3e+01 |   0.01563 |          0 | 0.000862 |  0.000472 | -2.84e-16 |  5.68e-17 |
    |  14 | 3e+01 | 3e+01 |   0.03125 |          0 |  0.00158 |  0.000665 | -4.55e-16 |  1.14e-16 |
    |  15 | 3e+01 | 3e+01 |   0.04688 |          0 |  0.00227 |   0.00079 |  9.09e-16 |  1.14e-16 |
    |  16 | 3e+01 | 3e+01 |    0.0625 |          0 |  0.00293 |  0.000892 | -5.68e-17 | -2.27e-16 |
    |  17 | 3e+01 | 3e+01 |   0.07813 |          0 |  0.00351 |  0.000973 |  3.41e-16 | -6.82e-16 |
    |  18 | 4e+01 | 4e+01 |   0.09375 |          0 |  0.00392 |   0.00101 |  6.82e-16 | -2.27e-16 |
    |  19 | 4e+01 | 4e+01 |    0.1094 |          0 |  0.00409 |  0.000734 |  6.82e-16 | -4.83e-16 |
    |  20 | 4e+01 | 4e+01 |     0.125 |     0.0125 |  0.00473 | -5.09e-05 |  1.42e-15 |  4.55e-16 |
    |  21 | 4e+01 | 4e+01 |    0.1375 |      0.025 |  0.00806 |  0.000454 |  2.84e-17 | -4.55e-16 |
    |  22 | 4e+01 | 4e+01 |      0.15 |      0.025 |  0.00931 |  0.000554 |  3.82e-15 | -5.68e-16 |
    |  23 | 4e+01 | 5e+01 |    0.1625 |      0.025 |   0.0106 |  0.000487 |  1.05e-15 | -4.55e-16 |
    |  24 | 5e+01 | 5e+01 |     0.175 |     0.0125 |   0.0139 | -0.000166 |  -8.1e-15 | -6.82e-16 |
    |  25 | 5e+01 | 5e+01 |    0.1906 |          0 |   0.0145 |  0.000709 |         0 | -1.82e-15 |
    |  26 | 5e+01 | 5e+01 |    0.2062 |          0 |   0.0147 |  0.000947 |  5.46e-15 |  2.27e-16 |
    |  27 | 5e+01 | 5e+01 |    0.2219 |          0 |   0.0151 |  0.000934 | -9.09e-16 |  4.55e-16 |
    |  28 | 6e+01 | 6e+01 |    0.2375 |          0 |   0.0157 |   0.00084 | -6.62e-15 | -4.55e-16 |
    |  29 | 6e+01 | 6e+01 |    0.2531 |          0 |   0.0164 |  0.000768 | -6.93e-15 |  1.08e-15 |
    |  30 | 6e+01 | 6e+01 |    0.2687 |          0 |   0.0171 |  0.000717 |  3.95e-15 | -3.98e-16 |
    |  31 | 6e+01 | 6e+01 |    0.2844 |          0 |   0.0179 |  0.000685 | -5.53e-15 | -4.55e-16 |
    |  32 | 6e+01 | 6e+01 |       0.3 |     0.0125 |   0.0187 |  0.000483 | -7.05e-15 |  4.21e-15 |
    |  33 | 6e+01 | 7e+01 |       0.3 |      0.025 |   0.0187 |  0.000304 |  2.18e-14 | -1.14e-15 |
    |  34 | 7e+01 | 7e+01 |       0.3 |     0.0375 |   0.0187 |  0.000123 |  6.37e-15 |  2.32e-15 |
    |  35 | 7e+01 | 7e+01 |       0.3 |       0.05 |   0.0187 | -6.04e-05 | -4.77e-15 |  1.49e-16 |
    |  36 | 7e+01 | 7e+01 |       0.3 |     0.0625 |   0.0187 | -0.000243 |  2.27e-15 |  2.44e-15 |
    |  37 | 7e+01 | 7e+01 |       0.3 |      0.075 |   0.0187 | -0.000424 |  3.87e-15 |  1.59e-15 |
    |  38 | 8e+01 | 8e+01 |       0.3 |     0.0875 |   0.0187 | -0.000603 | -6.82e-15 |  2.84e-15 |
    |  39 | 8e+01 | 8e+01 |    0.2844 |        0.1 |   0.0179 | -0.000798 | -4.91e-15 | -1.36e-15 |
    |  40 | 8e+01 | 8e+01 |    0.2687 |        0.1 |   0.0172 | -0.000822 |  5.85e-15 |  2.96e-15 |
    |  41 | 8e+01 | 8e+01 |    0.2531 |        0.1 |   0.0164 | -0.000866 |  4.06e-15 | -6.82e-16 |
    |  42 | 8e+01 | 8e+01 |    0.2375 |        0.1 |   0.0157 | -0.000932 |  -2.7e-16 | -1.31e-15 |
    |  43 | 8e+01 | 9e+01 |    0.2219 |        0.1 |   0.0151 |  -0.00101 |  9.95e-15 |  2.05e-15 |
    |  44 | 9e+01 | 9e+01 |    0.2062 |        0.1 |   0.0147 |  -0.00102 | -2.16e-15 | -1.82e-15 |
    |  45 | 9e+01 | 9e+01 |    0.1906 |        0.1 |   0.0146 | -0.000786 |  7.62e-15 | -7.96e-16 |
    |  46 | 9e+01 | 9e+01 |     0.175 |     0.0875 |   0.0139 |   7.7e-05 | -2.25e-15 | -4.09e-15 |
    |  47 | 9e+01 | 9e+01 |    0.1625 |      0.075 |   0.0106 | -0.000478 | -5.27e-15 |  1.02e-15 |
    |  48 | 1e+02 | 1e+02 |      0.15 |      0.075 |  0.00931 |  -0.00057 |  2.69e-15 |  4.55e-16 |
    |  49 | 1e+02 | 1e+02 |    0.1375 |      0.075 |  0.00806 | -0.000497 |  1.28e-15 |  1.82e-15 |
    |  50 | 1e+02 | 1e+02 |     0.125 |     0.0875 |  0.00474 |  6.37e-05 | -5.68e-16 | -7.96e-16 |
    |  51 | 1e+02 | 1e+02 |    0.1094 |        0.1 |  0.00407 |  -0.00074 |  1.88e-15 |  7.96e-16 |
    |  52 | 1e+02 | 1e+02 |   0.09375 |        0.1 |  0.00394 | -0.000994 |  1.59e-15 | -1.14e-16 |
    |  53 | 1e+02 | 1e+02 |   0.07812 |        0.1 |  0.00352 | -0.000975 |  3.84e-16 |  6.25e-16 |
    |  54 | 1e+02 | 1e+02 |    0.0625 |        0.1 |  0.00293 | -0.000889 |  2.56e-16 |  4.55e-16 |
    |  55 | 1e+02 | 1e+02 |   0.04687 |        0.1 |  0.00227 | -0.000791 |  8.53e-16 | -4.55e-16 |
    |  56 | 1e+02 | 1e+02 |   0.03125 |        0.1 |  0.00158 | -0.000667 |  2.84e-17 |  6.82e-16 |
    |  57 | 1e+02 | 1e+02 |   0.01562 |        0.1 | 0.000863 | -0.000473 | -2.84e-17 |  9.09e-16 |
    |  58 | 1e+02 | 1e+02 |         0 |     0.0875 |        0 |         0 |     -1.24 |     0.152 |
    |  59 | 1e+02 | 1e+02 |         0 |      0.075 |        0 |         0 |     -1.17 |     0.109 |
    |  60 | 1e+02 | 1e+02 |         0 |     0.0625 |        0 |         0 |     -1.16 |    0.0535 |
    |  61 | 1e+02 | 1e+02 |         0 |       0.05 |        0 |         0 |     -1.16 |  -0.00121 |
    |  62 | 1e+02 | 1e+02 |         0 |     0.0375 |        0 |         0 |     -1.16 |   -0.0506 |
    |  63 | 1e+02 | 1e+02 |         0 |      0.025 |        0 |         0 |     -1.17 |    -0.106 |
    |  64 | 1e+02 | 1e+02 |         0 |     0.0125 |        0 |         0 |     -1.24 |    -0.156 |
    |  65 | 1e+02 | 1e+02 |    0.2888 |    0.04352 |   0.0182 |     4e-05 |  8.99e-15 | -2.79e-15 |
    |  66 | 1e+02 | 1e+02 |   0.01182 |    0.05115 | 0.000498 |  -5.5e-06 | -2.84e-16 |  3.55e-18 |
    |  67 | 1e+02 | 1e+02 |   0.07393 |    0.01484 |  0.00342 |  0.000766 | -5.46e-15 |  7.96e-16 |
    |  68 | 1e+02 | 1e+02 |    0.2259 |     0.0879 |   0.0152 | -0.000837 |  2.79e-14 |  2.27e-15 |
    |  69 | 1e+02 | 1e+02 |    0.2439 |     0.0156 |    0.016 |   0.00059 |  6.25e-15 |  6.88e-15 |
    |  70 | 1e+02 | 1e+02 |   0.05998 |    0.08414 |   0.0028 | -0.000657 |  4.21e-15 | -2.27e-16 |
    |  71 | 1e+02 | 1e+02 |    0.2163 |    0.01306 |   0.0148 |  0.000797 |  3.64e-15 | -3.98e-15 |
    |  72 | 1e+02 | 1e+02 |   0.09174 |    0.08797 |  0.00408 | -0.000886 | -1.42e-15 | -4.55e-16 |
    |  73 | 1e+02 | 1e+02 |    0.2562 |     0.0881 |   0.0166 | -0.000686 | -1.66e-14 |  2.27e-16 |
    |  74 | 1e+02 | 1e+02 |   0.04259 |    0.01323 |    0.002 |  0.000578 | -1.08e-15 |  1.25e-15 |
    |  75 | 1e+02 | 2e+02 |    0.1307 |    0.06624 |  0.00747 | -0.000123 | -1.88e-15 | -1.99e-15 |
    |  76 | 2e+02 | 2e+02 |     0.118 |    0.07029 |  0.00628 | -0.000318 | -6.48e-15 |  2.84e-15 |
    |  77 | 2e+02 | 2e+02 |    0.1654 |    0.06225 |   0.0108 |  -0.00012 | -1.11e-14 | -1.93e-15 |
    |  78 | 2e+02 | 2e+02 |    0.1794 |     0.0666 |    0.012 | -0.000231 | -3.37e-14 |  -2.9e-15 |
    |  79 | 2e+02 | 2e+02 |    0.2875 |    0.06365 |   0.0181 | -0.000262 |  3.06e-14 | -2.16e-15 |
    |  80 | 2e+02 | 2e+02 |   0.01112 |    0.03074 | 0.000471 |  9.77e-05 |  3.27e-16 | -4.26e-17 |
    |  81 | 2e+02 | 2e+02 |    0.1454 |    0.03505 |  0.00886 |  0.000273 |  9.09e-16 |  1.14e-15 |
    |  82 | 2e+02 | 2e+02 |     0.272 |    0.01273 |   0.0173 |  0.000525 |  1.77e-14 | -3.87e-15 |
    |  83 | 2e+02 | 2e+02 |    0.1018 |     0.0159 |  0.00455 |  0.000802 | -6.42e-15 |  1.71e-15 |
    |  84 | 2e+02 | 2e+02 |   0.02825 |    0.08795 |  0.00133 | -0.000474 |  1.84e-15 | -8.24e-16 |
    |  85 | 2e+02 | 2e+02 |    0.1685 |    0.03796 |    0.011 |  6.93e-05 | -1.06e-14 | -4.43e-15 |
    |  86 | 2e+02 | 2e+02 |    0.1845 |    0.03255 |   0.0124 |  0.000288 | -9.09e-16 |  1.42e-15 |
    |  87 | 2e+02 | 2e+02 |    0.1256 |    0.05814 |  0.00725 | -6.25e-05 | -3.41e-16 |  -1.4e-15 |
    |  88 | 2e+02 | 2e+02 |    0.1104 |    0.05347 |  0.00615 | -8.07e-05 |  1.82e-15 | -4.69e-16 |
    |  89 | 2e+02 | 2e+02 |    0.1065 |    0.06556 |  0.00564 | -0.000392 |  1.02e-14 |  2.27e-16 |
    |  90 | 2e+02 | 2e+02 |   0.09972 |    0.04995 |  0.00538 | -3.24e-06 |  5.95e-15 | -1.36e-15 |
    |  91 | 2e+02 | 2e+02 |     0.189 |    0.02579 |    0.013 |  0.000485 | -1.39e-15 | -9.09e-16 |
    |  92 | 2e+02 | 2e+02 |    0.1959 |    0.03932 |    0.013 |  0.000247 |  3.76e-14 | -5.68e-16 |
    |  93 | 2e+02 | 2e+02 |     0.198 |    0.08503 |   0.0141 | -0.000836 | -1.25e-15 |  8.19e-15 |
    |  94 | 2e+02 | 2e+02 |    0.1146 |    0.04156 |  0.00639 |  0.000158 | -9.21e-15 |  1.48e-15 |
    |  95 | 2e+02 | 2e+02 |   0.09699 |    0.03505 |  0.00502 |  0.000424 | -2.53e-15 |  2.27e-16 |
    |  96 | 2e+02 | 2e+02 |   0.08199 |    0.04437 |  0.00417 |  0.000153 | -6.51e-15 | -1.02e-15 |
    |  97 | 2e+02 | 2e+02 |   0.06888 |    0.05025 |  0.00339 | -1.11e-05 |  2.43e-15 |  -8.1e-16 |
    |  98 | 2e+02 | 2e+02 |   0.06422 |    0.04097 |  0.00311 |  0.000204 |  3.13e-16 |  5.68e-16 |
    |  99 | 2e+02 | 2e+02 |   0.05337 |    0.05509 |  0.00252 | -0.000101 |  6.54e-16 |  3.98e-16 |
    | 100 | 2e+02 | 2e+02 |   0.05315 |    0.04039 |  0.00251 |  0.000187 |  2.07e-15 |  1.42e-16 |
    | 101 | 2e+02 | 2e+02 |   0.03766 |    0.05236 |  0.00171 | -3.49e-05 | -8.53e-17 | -1.85e-16 |
    | 102 | 2e+02 | 2e+02 |   0.03834 |    0.03967 |  0.00175 |  0.000156 | -3.84e-15 |  2.84e-16 |
    | 103 | 2e+02 | 2e+02 |    0.1154 |    0.08152 |  0.00527 | -0.000558 |   3.1e-15 | -1.71e-15 |
    | 104 | 2e+02 | 2e+02 |    0.1401 |     0.0557 |  0.00843 | -8.16e-05 | -5.67e-15 |  2.56e-16 |
    | 105 | 2e+02 | 2e+02 |   0.07417 |    0.06286 |  0.00365 | -0.000323 |  5.12e-15 | -7.96e-16 |
    | 106 | 2e+02 | 2e+02 |    0.1737 |    0.05167 |   0.0113 |  -4.4e-05 |  1.04e-14 | -1.53e-15 |
    | 107 | 2e+02 | 2e+02 |      0.16 |    0.05471 |   0.0102 | -5.96e-05 | -1.99e-16 |  2.43e-15 |
    | 108 | 2e+02 | 2e+02 |   0.04677 |    0.06418 |  0.00217 | -0.000251 |  1.12e-15 | -5.68e-16 |
    | 109 | 2e+02 | 2e+02 |   0.03737 |    0.06396 |   0.0017 | -0.000208 | -3.69e-16 |  2.27e-16 |
    | 110 | 2e+02 | 2e+02 |   0.05529 |    0.02763 |  0.00259 |  0.000433 | -5.61e-16 |  1.42e-16 |
    | 111 | 2e+02 | 2e+02 |    0.1868 |    0.05591 |   0.0123 | -0.000151 |   2.5e-14 | -3.69e-15 |
    | 112 | 2e+02 | 2e+02 |    0.1936 |    0.06383 |   0.0129 | -0.000371 |  4.26e-15 | -5.23e-15 |
    | 113 | 2e+02 | 2e+02 |    0.2007 |    0.05271 |   0.0133 | -0.000109 | -8.09e-15 | -1.25e-15 |
    | 114 | 2e+02 | 2e+02 |    0.2026 |    0.06359 |   0.0135 | -0.000408 | -1.75e-14 | -1.02e-15 |
    | 115 | 2e+02 | 2e+02 |    0.2141 |    0.05131 |   0.0142 | -7.38e-05 |   6.7e-15 | -4.83e-15 |
    | 116 | 2e+02 | 2e+02 |    0.2155 |    0.06356 |   0.0144 | -0.000402 | -1.65e-15 |  3.41e-15 |
    | 117 | 2e+02 | 2e+02 |    0.2285 |    0.05016 |    0.015 | -4.42e-05 | -2.28e-14 |         0 |
    | 118 | 2e+02 | 2e+02 |    0.2298 |    0.06325 |   0.0152 | -0.000354 | -5.84e-15 | -1.82e-15 |
    | 119 | 2e+02 | 2e+02 |    0.2455 |     0.0475 |    0.016 |  4.11e-06 |  1.75e-14 | -3.98e-15 |
    | 120 | 2e+02 | 2e+02 |    0.2248 |    0.03635 |   0.0149 |  0.000297 | -9.69e-15 |   2.3e-15 |
    | 121 | 2e+02 | 2e+02 |    0.2451 |    0.06302 |    0.016 | -0.000307 |   6.2e-15 |  2.81e-15 |
    | 122 | 2e+02 | 2e+02 |    0.2619 |      0.051 |   0.0168 | -6.89e-05 |  7.56e-15 | -1.65e-15 |
    | 123 | 2e+02 | 2e+02 |     0.253 |    0.03848 |   0.0164 |  0.000167 |  2.88e-15 |  3.81e-15 |
    | 124 | 2e+02 | 2e+02 |    0.2631 |    0.03884 |   0.0169 |   0.00014 | -5.41e-15 |  1.34e-15 |
    | 125 | 2e+02 | 2e+02 |    0.2601 |    0.06344 |   0.0168 | -0.000284 | -2.09e-14 |  3.18e-15 |
    | 126 | 3e+02 | 3e+02 |    0.2616 |    0.02675 |   0.0168 |  0.000342 | -3.48e-14 | -1.14e-16 |
    | 127 | 3e+02 | 3e+02 |   0.08484 |    0.02735 |  0.00412 |  0.000589 |  2.27e-16 |  1.59e-15 |
    | 128 | 3e+02 | 3e+02 |    0.1973 |    0.02602 |   0.0135 |  0.000571 | -4.55e-15 |  2.73e-15 |
    | 129 | 3e+02 | 3e+02 |    0.2144 |    0.07521 |   0.0145 | -0.000678 |  3.92e-15 | -8.87e-15 |
    | 130 | 3e+02 | 3e+02 |    0.1287 |     0.0445 |   0.0075 |  4.57e-05 |  3.67e-15 | -2.84e-16 |
    | 131 | 3e+02 | 3e+02 |    0.2435 |     0.0758 |    0.016 | -0.000546 | -3.22e-14 |  3.84e-15 |
    | 132 | 3e+02 | 3e+02 |   0.03929 |    0.07502 |  0.00181 | -0.000383 | -3.87e-15 |         0 |
    | 133 | 3e+02 | 3e+02 |   0.02442 |    0.05171 |  0.00107 | -1.78e-05 | -6.25e-16 |  -4.9e-16 |
    | 134 | 3e+02 | 3e+02 |   0.07713 |    0.08713 |  0.00353 | -0.000815 | -1.48e-15 | -1.14e-15 |
    | 135 | 3e+02 | 3e+02 |   0.06657 |      0.075 |  0.00314 | -0.000543 |  1.78e-16 |  1.85e-15 |
    | 136 | 3e+02 | 3e+02 |    0.2315 |     0.0188 |   0.0154 |  0.000616 | -5.85e-15 | -6.48e-15 |
    | 137 | 3e+02 | 3e+02 |    0.2756 |    0.05184 |   0.0175 | -8.32e-05 | -2.58e-14 | -2.79e-15 |
    | 138 | 3e+02 | 3e+02 |    0.2113 |    0.03814 |   0.0141 |   0.00029 | -1.85e-14 |  5.68e-16 |
    | 139 | 3e+02 | 3e+02 |    0.2747 |    0.02512 |   0.0175 |  0.000336 | -1.46e-15 |  1.14e-16 |
    | 140 | 3e+02 | 3e+02 |    0.2711 |    0.08809 |   0.0173 | -0.000646 |  1.13e-14 |  3.07e-15 |
    | 141 | 3e+02 | 3e+02 |    0.0274 |    0.01227 |  0.00129 |  0.000459 |  2.13e-15 |  6.82e-16 |
    | 142 | 3e+02 | 3e+02 |   0.08659 |    0.01732 |  0.00402 |  0.000791 |  8.58e-15 | -4.55e-16 |
    | 143 | 3e+02 | 3e+02 |    0.1053 |    0.08887 |  0.00447 | -0.000801 |  5.63e-15 |  5.12e-16 |
    | 144 | 3e+02 | 3e+02 |   0.09085 |    0.07539 |  0.00439 | -0.000666 |  7.39e-16 |  2.05e-15 |
    | 145 | 3e+02 | 3e+02 |    0.2577 |    0.01377 |   0.0166 |  0.000554 |  1.39e-14 |  1.59e-15 |
    | 146 | 3e+02 | 3e+02 |    0.1394 |     0.0655 |  0.00827 |  -0.00024 | -1.05e-14 | -1.59e-15 |
    | 147 | 3e+02 | 3e+02 |    0.1574 |    0.03588 |     0.01 |  0.000227 |  -4.8e-15 | -1.14e-16 |
    | 148 | 3e+02 | 3e+02 |    0.1535 |    0.04595 |  0.00961 |  5.85e-05 |  -3.4e-15 | -1.42e-17 |
    | 149 | 3e+02 | 3e+02 |    0.1511 |    0.06467 |  0.00941 | -0.000297 |  9.08e-15 |  2.05e-15 |
    | 150 | 3e+02 | 3e+02 |    0.1153 |    0.02066 |  0.00542 |  0.000515 | -2.27e-15 |   3.3e-15 |
    | 151 | 3e+02 | 3e+02 |    0.1092 |    0.02557 |  0.00543 |   0.00057 |  8.84e-15 |  2.27e-16 |
    | 152 | 3e+02 | 3e+02 |    0.1868 |    0.08065 |   0.0134 | -0.000617 | -5.06e-15 |  5.91e-15 |
    | 153 | 3e+02 | 3e+02 |    0.2876 |    0.02422 |   0.0181 |  0.000328 | -3.82e-15 | -6.76e-15 |
    | 154 | 3e+02 | 3e+02 |   0.01283 |    0.07573 | 0.000552 | -0.000151 | -1.05e-15 | -5.76e-16 |
    | 155 | 3e+02 | 3e+02 |    0.2867 |    0.07572 |   0.0181 | -0.000442 | -1.67e-14 |  4.32e-15 |
    | 156 | 3e+02 | 3e+02 |   0.01153 |    0.03918 | 0.000486 |  5.61e-05 |   8.1e-16 |  9.77e-17 |
    | 157 | 3e+02 | 3e+02 |    0.0119 |    0.01998 | 0.000518 |  0.000166 | -7.96e-16 | -1.71e-16 |
    | 158 | 3e+02 | 3e+02 |    0.2881 |     0.0518 |   0.0181 | -8.44e-05 | -2.42e-14 |  2.59e-15 |
    | 159 | 3e+02 | 3e+02 |   0.01226 |    0.06337 | 0.000519 | -7.19e-05 | -6.11e-16 | -2.84e-17 |
    | 160 | 3e+02 | 3e+02 |    0.2203 |    0.02284 |   0.0148 |  0.000611 |  3.55e-14 |  5.46e-15 |
    | 161 | 3e+02 | 3e+02 |    0.2885 |    0.03268 |   0.0181 |  0.000202 | -5.12e-15 |  2.03e-15 |
    | 162 | 3e+02 | 3e+02 |   0.05866 |    0.01404 |  0.00273 |  0.000675 |  3.98e-16 | -2.27e-16 |
    | 163 | 3e+02 | 3e+02 |   0.07229 |    0.03111 |  0.00349 |  0.000455 | -6.11e-16 | -1.14e-16 |
    | 164 | 3e+02 | 3e+02 |    0.2374 |    0.03286 |   0.0156 |  0.000323 |     5e-15 |  -2.5e-15 |
    | 165 | 3e+02 | 3e+02 |    0.1957 |    0.01476 |    0.014 |   0.00074 | -3.64e-15 | -4.55e-16 |
    | 166 | 3e+02 | 3e+02 |   0.02417 |    0.03941 |  0.00106 |  0.000108 |  1.61e-15 |  2.84e-16 |
    | 167 | 3e+02 | 3e+02 |      0.12 |    0.03153 |  0.00651 |  0.000245 |  4.89e-15 |  7.96e-16 |
    | 168 | 3e+02 | 3e+02 |    0.2742 |     0.0638 |   0.0174 | -0.000273 | -1.02e-14 | -9.09e-16 |
    | 169 | 3e+02 | 3e+02 |   0.02617 |    0.07577 |  0.00117 | -0.000291 |  1.39e-15 | -6.68e-16 |
    | 170 | 3e+02 | 3e+02 |    0.2016 |    0.07381 |   0.0138 | -0.000662 |  7.96e-15 | -9.09e-16 |
    | 171 | 3e+02 | 3e+02 |    0.2788 |     0.0384 |   0.0177 |  0.000126 | -1.71e-15 |  1.59e-15 |
    | 172 | 3e+02 | 3e+02 |    0.2727 |    0.07594 |   0.0174 | -0.000462 |  2.87e-14 |  3.24e-15 |
    | 173 | 3e+02 | 3e+02 |   0.09092 |    0.05924 |  0.00472 | -0.000267 | -4.15e-15 |         0 |
    | 174 | 3e+02 | 3e+02 |   0.02502 |    0.06373 |   0.0011 | -0.000146 |  1.39e-15 |  2.27e-16 |
    | 175 | 3e+02 | 4e+02 |   0.03976 |    0.02651 |  0.00183 |  0.000364 | -1.02e-15 | -1.59e-15 |
    | 176 | 4e+02 | 4e+02 |   0.02214 |    0.02575 | 0.000976 |  0.000235 |   2.9e-15 |  3.13e-16 |
    | 177 | 4e+02 | 4e+02 |    0.2111 |    0.08722 |   0.0146 | -0.000896 |  2.72e-15 |  4.55e-16 |
    | 178 | 4e+02 | 4e+02 |    0.2582 |    0.07586 |   0.0167 | -0.000493 |  5.53e-15 |   2.5e-15 |
    | 179 | 4e+02 | 4e+02 |    0.1043 |    0.07745 |  0.00502 | -0.000675 |  2.53e-15 |  3.41e-16 |
    | 180 | 4e+02 | 4e+02 |    0.0768 |    0.07498 |  0.00366 |   -0.0006 | -6.61e-15 |  1.62e-15 |
    | 181 | 4e+02 | 4e+02 |    0.1517 |    0.05522 |  0.00945 |  -9.6e-05 |   1.1e-14 |     2e-15 |
    | 182 | 4e+02 | 4e+02 |    0.1637 |    0.04795 |   0.0105 |  1.29e-05 |   3.1e-15 |  2.36e-15 |
    | 183 | 4e+02 | 4e+02 |    0.2492 |    0.02904 |   0.0162 |  0.000347 | -6.31e-15 | -1.73e-15 |
    | 184 | 4e+02 | 4e+02 |    0.2408 |    0.08798 |   0.0159 | -0.000752 | -6.76e-15 | -8.19e-15 |
    | 185 | 4e+02 | 4e+02 |   0.04319 |    0.08693 |  0.00203 | -0.000584 |  -3.3e-15 |  9.09e-16 |
    | 186 | 4e+02 | 4e+02 |    0.1328 |    0.03409 |  0.00764 |  0.000124 |  6.79e-15 |  1.71e-15 |
    | 187 | 4e+02 | 4e+02 |    0.2285 |    0.07559 |   0.0152 | -0.000618 |  1.89e-14 |  4.55e-16 |
    | 188 | 4e+02 | 4e+02 |     0.179 |    0.04195 |   0.0117 |   6.2e-05 |  6.91e-15 | -1.38e-15 |
    | 189 | 4e+02 | 4e+02 |    0.0619 |    0.06698 |  0.00295 | -0.000364 | -3.47e-15 | -6.82e-16 |
    | 190 | 4e+02 | 4e+02 |   0.09494 |    0.02105 |  0.00448 |  0.000732 |  5.12e-15 | -3.18e-15 |
    | 191 | 4e+02 | 4e+02 |    0.1129 |    0.01237 |  0.00471 |  0.000641 | -1.34e-15 | -2.39e-15 |
    | 192 | 4e+02 | 4e+02 |    0.2856 |    0.08784 |    0.018 | -0.000621 |  4.23e-14 | -3.87e-15 |
    | 193 | 4e+02 | 4e+02 |   0.01352 |    0.01167 | 0.000612 |  0.000262 | -4.26e-17 | -5.83e-16 |
    | 194 | 4e+02 | 4e+02 |    0.1837 |    0.08851 |    0.014 |  -0.00051 |  -1.4e-14 |  7.96e-16 |
    | 195 | 4e+02 | 4e+02 |     0.286 |    0.01238 |    0.018 |  0.000504 | -4.26e-17 | -8.87e-15 |
    | 196 | 4e+02 | 4e+02 |   0.01415 |    0.08782 | 0.000639 | -0.000268 | -4.12e-16 | -8.53e-16 |
    | 197 | 4e+02 | 4e+02 |    0.1869 |    0.04567 |   0.0123 |  5.21e-05 |  -1.9e-15 | -1.53e-15 |
    | 198 | 4e+02 | 4e+02 |    0.1144 |    0.08945 |  0.00458 | -0.000542 |  1.08e-15 |  1.25e-15 |
    | 199 | 4e+02 | 4e+02 |    0.2088 |    0.02533 |   0.0142 |  0.000608 | -1.96e-14 | -1.82e-15 |
    | 200 | 4e+02 | 4e+02 |    0.1419 |    0.04544 |  0.00858 |  4.71e-05 | -1.04e-14 |  3.13e-15 |
    | 201 | 4e+02 | 4e+02 |    0.1832 |    0.01128 |   0.0139 |   0.00041 | -3.13e-16 |  5.91e-15 |
    | 202 | 4e+02 | 4e+02 |     0.186 |    0.01868 |   0.0134 |  0.000531 | -1.48e-15 | -2.73e-15 |
    | 203 | 4e+02 | 4e+02 |    0.1904 |    0.07081 |    0.013 | -0.000512 |  1.39e-14 |  3.64e-15 |
    | 204 | 4e+02 | 4e+02 |   0.05129 |    0.07186 |   0.0024 | -0.000404 | -2.84e-15 | -6.82e-16 |
    | 205 | 4e+02 | 4e+02 |     0.207 |    0.01295 |   0.0145 |  0.000825 |  2.91e-14 |  2.73e-15 |
    +-----+-------+-------+-----------+------------+----------+-----------+-----------+-----------+

    Results per element:

    +------+-------+-------+-------+-------+----------+-----------+----------+---------+----------+----------+----------+
    |   El |     N |     N |     N |     N |   sig_xx |    sig_yy |   tau_xy |   vMise |   eps_xx |   eps_yy |   eps_xy |
    |   Nb |     1 |     2 |     3 |     4 |    [MPa] |     [MPa] |    [MPa] |   [MPa] |      [-] |      [-] |      [-] |
    |------+-------+-------+-------+-------+----------+-----------+----------+---------+----------+----------+----------|
    |    1 | 1e+02 | 1e+02 | 2e+02 | 7e+01 |     9.84 |    -0.333 |   -0.445 |      10 |  4.8e-05 | -1.6e-05 | -5.6e-06 |
    |    2 | 9e+01 | 1e+02 | 1e+02 | 1e+02 |     13.6 |     -1.58 |   -0.457 |    14.5 |  6.8e-05 | -2.7e-05 | -5.7e-06 |
    |    3 | 2e+02 | 1e+02 | 2e+02 | 7e+01 |     9.82 |    -0.709 |    0.935 |    10.3 |  4.8e-05 | -1.8e-05 |  1.2e-05 |
    |    4 | 7e+01 | 2e+02 | 1e+02 | 2e+02 |     9.82 |    -0.285 |    0.451 |      10 |  4.8e-05 | -1.6e-05 |  5.6e-06 |
    |    5 | 1e+02 | 1e+02 | 2e+02 | 7e+01 |     9.96 |    -0.927 |     1.46 |    10.8 |  4.9e-05 | -1.9e-05 |  1.8e-05 |
    |    6 | 2e+02 | 1e+02 | 2e+02 | 1e+02 |     10.3 |     -1.07 |    -1.21 |    11.1 |  5.1e-05 |   -2e-05 | -1.5e-05 |
    |    7 | 2e+02 | 1e+02 | 2e+02 | 6e+01 |       10 |    -0.195 |  -0.0141 |    10.1 |  4.9e-05 | -1.5e-05 | -1.8e-07 |
    |    8 | 1e+02 | 2e+02 | 9e+01 | 8e+01 |     12.8 |     -0.17 |    -3.32 |    14.1 |  6.2e-05 | -1.9e-05 | -4.2e-05 |
    |    9 | 2e+02 | 1e+02 | 7e+01 | 2e+02 |     9.87 |      1.35 |    0.135 |    9.28 |  4.6e-05 | -7.8e-06 |  1.7e-06 |
    |   10 | 8e+01 | 1e+02 | 1e+02 | 1e+02 |      9.9 |    -0.168 |   -0.203 |    9.99 |  4.8e-05 | -1.5e-05 | -2.5e-06 |
    |   11 | 2e+02 | 1e+02 | 2e+02 | 1e+02 |     11.4 |     -1.52 |    -1.51 |    12.5 |  5.7e-05 | -2.4e-05 | -1.9e-05 |
    |   12 | 2e+02 | 1e+02 | 2e+02 | 9e+01 |     9.16 |    -0.797 |     2.52 |    10.5 |  4.5e-05 | -1.7e-05 |  3.1e-05 |
    |   13 | 2e+02 | 1e+02 | 2e+02 | 8e+01 |     9.94 |    0.0841 |    -0.34 |    9.92 |  4.8e-05 | -1.4e-05 | -4.3e-06 |
    |   14 | 9e+01 | 1e+02 | 1e+02 | 2e+02 |     15.1 |    -0.405 |   -0.268 |    15.4 |  7.3e-05 | -2.4e-05 | -3.3e-06 |
    |   15 | 2e+02 | 2e+02 | 1e+02 | 9e+01 |     17.1 |      2.82 |     1.41 |      16 |  7.8e-05 | -1.1e-05 |  1.8e-05 |
    |   16 | 2e+02 | 2e+02 | 1e+02 | 1e+02 |     16.2 |      1.65 |   -0.146 |    15.4 |  7.5e-05 | -1.5e-05 | -1.8e-06 |
    |   17 | 2e+02 | 2e+02 | 2e+02 | 8e+01 |       10 |    -0.152 |   0.0822 |    10.1 |  4.8e-05 | -1.5e-05 |    1e-06 |
    |   18 | 2e+02 | 7e+01 | 2e+02 | 1e+02 |     9.73 |    -0.309 |    0.515 |    9.93 |  4.7e-05 | -1.6e-05 |  6.4e-06 |
    |   19 | 2e+01 | 3e+01 | 2e+02 | 2e+02 |      4.2 |     0.065 |    -1.64 |    5.04 |    2e-05 | -5.7e-06 |   -2e-05 |
    |   20 | 1e+02 | 2e+02 | 2e+02 | 1e+02 |     11.2 |     -1.43 |    -1.62 |    12.3 |  5.6e-05 | -2.3e-05 |   -2e-05 |
    |   21 | 5e+01 | 5e+01 | 1e+02 | 7e+01 |     6.67 |    -0.175 |    -1.05 |       7 |  3.2e-05 |   -1e-05 | -1.3e-05 |
    |   22 | 2e+02 | 1e+02 | 1e+02 | 1e+02 |     10.2 |      0.43 |    0.109 |      10 |  4.8e-05 | -1.3e-05 |  1.4e-06 |
    |   23 | 2e+02 | 2e+02 | 9e+01 | 2e+02 |     10.1 |     -0.51 |     3.27 |    11.8 |  4.9e-05 | -1.7e-05 |  4.1e-05 |
    |   24 | 1e+02 | 1e+02 | 1e+02 | 1e+02 |     10.4 |     -0.78 |    0.156 |    10.8 |  5.1e-05 | -1.9e-05 |  1.9e-06 |
    |   25 | 1e+02 | 7e+01 | 2e+02 | 2e+02 |     9.88 |    -0.163 |    0.222 |    9.97 |  4.8e-05 | -1.5e-05 |  2.8e-06 |
    |   26 | 1e+02 | 1e+02 | 1e+02 | 1e+02 |     10.6 |    -0.459 |    0.064 |    10.8 |  5.2e-05 | -1.7e-05 |    8e-07 |
    |   27 | 1e+02 | 4e+01 | 4e+01 | 7e+01 |     9.82 |   -0.0385 |   0.0972 |    9.84 |  4.7e-05 | -1.4e-05 |  1.2e-06 |
    |   28 | 1e+02 | 1e+01 | 2e+01 | 7e+01 |     9.52 |  -0.00997 |   0.0857 |    9.52 |  4.6e-05 | -1.4e-05 |  1.1e-06 |
    |   29 | 7e+01 | 1e+02 | 5e+01 | 5e+01 |     3.91 |     0.105 |    -1.36 |    4.52 |  1.9e-05 | -5.1e-06 | -1.7e-05 |
    |   30 | 1e+02 | 7e+01 | 3e+01 | 3e+01 |     9.47 |   -0.0994 |   -0.289 |    9.54 |  4.6e-05 | -1.4e-05 | -3.6e-06 |
    |   31 | 7e+01 | 1e+02 | 5e+01 | 5e+01 |      8.4 |    -0.159 |    -0.57 |    8.54 |  4.1e-05 | -1.3e-05 | -7.1e-06 |
    |   32 | 7e+01 | 1e+02 | 3e+01 | 3e+01 |     8.78 |    -0.237 |   -0.672 |    8.98 |  4.3e-05 | -1.4e-05 | -8.4e-06 |
    |   33 | 2e+02 | 1e+02 | 2e+02 | 1e+02 |     18.9 |      2.78 |    0.167 |    17.7 |  8.7e-05 | -1.4e-05 |  2.1e-06 |
    |   34 | 1e+02 | 1e+02 | 1e+02 | 1e+02 |     10.4 |    -0.624 |   -0.159 |    10.8 |  5.1e-05 | -1.8e-05 |   -2e-06 |
    |   35 | 1e+02 | 1e+02 | 1e+02 | 1e+02 |     10.5 |    -0.249 |    -0.24 |    10.7 |  5.1e-05 | -1.6e-05 |   -3e-06 |
    |   36 | 1e+02 | 1e+02 | 1e+02 | 1e+02 |       11 |     -1.21 |      0.3 |    11.7 |  5.5e-05 | -2.2e-05 |  3.8e-06 |
    |   37 | 2e+02 | 1e+02 | 8e+01 | 1e+02 |     17.8 |      3.44 |    0.637 |    16.4 |  8.1e-05 | -9.2e-06 |    8e-06 |
    |   38 | 9e+01 | 1e+02 | 1e+02 | 8e+01 |     18.3 |      3.31 |    -1.93 |    17.2 |  8.3e-05 |   -1e-05 | -2.4e-05 |
    |   39 | 1e+02 | 1e+02 | 2e+02 | 1e+02 |     10.1 |    -0.385 |  -0.0501 |    10.3 |  4.9e-05 | -1.6e-05 | -6.3e-07 |
    |   40 | 5e+01 | 1e+02 | 1e+02 | 5e+01 |     20.6 |      0.43 |   -0.557 |    20.4 |  9.9e-05 | -2.8e-05 |   -7e-06 |
    |   41 | 5e+01 | 1e+02 | 8e+01 | 5e+01 |     20.6 |     0.781 |     1.06 |    20.3 |  9.8e-05 | -2.6e-05 |  1.3e-05 |
    |   42 | 1e+02 | 2e+01 |     4 | 8e+01 |     23.3 |      2.29 |    -3.24 |    22.9 |  0.00011 | -2.3e-05 |   -4e-05 |
    |   43 | 2e+01 | 1e+02 | 8e+01 | 2e+01 |     20.6 |     0.461 |   -0.434 |    20.4 |  9.8e-05 | -2.8e-05 | -5.4e-06 |
    |   44 | 1e+02 | 5e+01 | 1e+01 | 8e+01 |     24.8 |      2.43 |    -3.63 |    24.5 |  0.00012 | -2.4e-05 | -4.5e-05 |
    |   45 | 1e+02 | 1e+02 | 1e+02 | 1e+02 |     11.1 |     -1.04 |     0.11 |    11.7 |  5.5e-05 | -2.1e-05 |  1.4e-06 |
    |   46 | 3e+01 | 1e+02 | 2e+02 | 7e+01 |     8.73 |     -0.41 |    -1.26 |     9.2 |  4.3e-05 | -1.5e-05 | -1.6e-05 |
    |   47 | 8e+01 | 1e+02 | 3e+01 | 3e+01 |     9.83 |   -0.0509 |   -0.105 |    9.86 |  4.7e-05 | -1.4e-05 | -1.3e-06 |
    |   48 | 2e+02 | 2e+02 | 2e+02 | 1e+02 |       10 |     -0.15 |  -0.0744 |    10.1 |  4.8e-05 | -1.5e-05 | -9.3e-07 |
    |   49 | 1e+02 | 1e+02 | 1e+02 | 1e+02 |     12.1 |     -1.73 |   -0.519 |    13.1 |  6.1e-05 | -2.6e-05 | -6.5e-06 |
    |   50 | 2e+02 | 1e+02 | 2e+02 | 7e+01 |     9.19 |    -0.741 |     1.73 |      10 |  4.5e-05 | -1.7e-05 |  2.2e-05 |
    |   51 | 7e+01 | 2e+01 | 2e+01 | 1e+02 |     7.07 |    -0.383 |     1.25 |    7.58 |  3.5e-05 | -1.2e-05 |  1.6e-05 |
    |   52 | 2e+02 | 1e+02 | 2e+02 | 1e+02 |     10.6 |      -1.2 |    -1.05 |    11.4 |  5.3e-05 | -2.1e-05 | -1.3e-05 |
    |   53 | 2e+01 | 7e+01 | 2e+02 | 2e+01 |     8.45 |    -0.166 |     0.59 |    8.59 |  4.1e-05 | -1.3e-05 |  7.4e-06 |
    |   54 | 5e+01 | 8e+01 | 8e+01 |     9 |     22.2 |      4.13 |     3.77 |    21.5 |   0.0001 | -1.2e-05 |  4.7e-05 |
    |   55 | 9e+01 | 8e+01 | 1e+01 | 8e+01 |     17.7 |      4.67 |    -2.63 |    16.5 |  7.8e-05 |   -3e-06 | -3.3e-05 |
    |   56 | 2e+02 | 1e+02 | 2e+02 | 1e+02 |     19.3 |      2.77 |    0.012 |    18.1 |  8.9e-05 | -1.5e-05 |  1.5e-07 |
    |   57 | 1e+02 | 1e+02 | 1e+02 | 1e+02 |     11.9 |     -1.69 |    0.591 |    12.9 |    6e-05 | -2.5e-05 |  7.4e-06 |
    |   58 | 2e+02 | 7e+01 | 2e+02 | 1e+02 |     9.51 |    -0.517 |     1.02 |    9.93 |  4.6e-05 | -1.6e-05 |  1.3e-05 |
    |   59 | 4e+01 | 9e+01 | 2e+02 | 4e+01 |      4.6 |   -0.0432 |     1.62 |     5.4 |  2.2e-05 | -6.8e-06 |    2e-05 |
    |   60 | 8e+01 | 1e+02 | 1e+02 | 8e+01 |     16.7 |      2.79 |     1.03 |    15.6 |  7.6e-05 | -1.1e-05 |  1.3e-05 |
    |   61 | 1e+02 | 1e+02 | 2e+02 | 1e+02 |     10.7 |    -0.963 |    0.611 |    11.2 |  5.3e-05 |   -2e-05 |  7.6e-06 |
    |   62 | 7e+01 | 1e+02 | 2e+02 | 1e+02 |     9.53 |    -0.706 |    -1.17 |    10.1 |  4.7e-05 | -1.7e-05 | -1.5e-05 |
    |   63 | 1e+02 | 2e+02 | 1e+02 | 1e+02 |     11.1 |     -1.33 |   -0.462 |    11.8 |  5.5e-05 | -2.2e-05 | -5.8e-06 |
    |   64 | 9e+01 | 9e+01 | 1e+02 | 9e+01 |     14.9 |    -0.722 |    0.395 |    15.3 |  7.3e-05 | -2.5e-05 |  4.9e-06 |
    |   65 | 7e+01 | 2e+01 | 2e+01 | 2e+02 |     9.17 |    -0.107 |    0.223 |    9.23 |  4.4e-05 | -1.4e-05 |  2.8e-06 |
    |   66 | 1e+02 | 1e+02 | 2e+02 | 1e+02 |     11.7 |     -1.49 |    0.534 |    12.6 |  5.8e-05 | -2.4e-05 |  6.7e-06 |
    |   67 | 1e+02 | 1e+02 | 1e+02 | 1e+02 |     13.2 |     -1.68 |    0.843 |    14.2 |  6.6e-05 | -2.7e-05 |  1.1e-05 |
    |   68 | 1e+02 | 1e+02 | 2e+02 | 1e+02 |       12 |     -1.65 |     1.25 |      13 |    6e-05 | -2.5e-05 |  1.6e-05 |
    |   69 | 1e+02 | 9e+01 | 9e+01 | 9e+01 |     16.2 |      2.06 |    0.165 |    15.3 |  7.5e-05 | -1.4e-05 |  2.1e-06 |
    |   70 | 1e+02 | 2e+02 | 2e+02 | 9e+01 |     14.6 |    -0.199 |     2.01 |    15.1 |    7e-05 | -2.2e-05 |  2.5e-05 |
    |   71 | 9e+01 | 8e+01 | 9e+01 | 9e+01 |     15.7 |     0.833 |    -1.25 |    15.4 |  7.4e-05 | -1.9e-05 | -1.6e-05 |
    |   72 | 1e+02 | 2e+02 | 2e+02 | 1e+02 |     10.4 |    -0.861 |   -0.416 |    10.9 |  5.1e-05 | -1.9e-05 | -5.2e-06 |
    |   73 | 9e+01 | 9e+01 | 1e+02 | 9e+01 |     14.2 |     -0.52 |    -2.15 |    14.9 |  6.9e-05 | -2.3e-05 | -2.7e-05 |
    |   74 | 8e+01 | 1e+01 | 5e+01 | 1e+02 |     10.4 |      3.71 |    -4.83 |    12.4 |  4.5e-05 |  2.8e-06 |   -6e-05 |
    |   75 | 5e+01 | 6e+01 | 2e+02 | 7e+01 |     9.21 |    -0.105 |   -0.247 |    9.27 |  4.4e-05 | -1.4e-05 | -3.1e-06 |
    |   76 | 1e+02 | 1e+02 | 1e+02 | 1e+02 |     14.7 |    -0.982 |        1 |    15.3 |  7.2e-05 | -2.6e-05 |  1.3e-05 |
    |   77 | 1e+02 | 2e+02 | 1e+01 | 5e+01 |    0.958 |     0.452 |   -0.472 |    1.17 |    4e-06 |  7.9e-07 | -5.9e-06 |
    |   78 | 6e+01 | 8e+01 | 2e+02 | 6e+01 |     9.52 |      2.41 |    0.588 |    8.63 |  4.2e-05 | -2.1e-06 |  7.3e-06 |
    |   79 | 4e+01 | 4e+01 | 8e+01 | 2e+02 |       10 |   -0.0807 |   0.0128 |      10 |  4.8e-05 | -1.5e-05 |  1.6e-07 |
    |   80 | 2e+02 | 8e+01 | 2e+02 | 1e+02 |     19.3 |      3.27 |     1.54 |    18.1 |  8.8e-05 | -1.2e-05 |  1.9e-05 |
    |   81 | 3e+01 | 4e+01 | 2e+02 | 6e+01 |       10 |   -0.0775 |  -0.0058 |      10 |  4.8e-05 | -1.5e-05 | -7.3e-08 |
    |   82 | 6e+01 | 2e+02 | 7e+01 | 6e+01 |     9.46 |      2.31 |      0.2 |    8.55 |  4.2e-05 | -2.5e-06 |  2.5e-06 |
    |   83 | 1e+02 | 1e+02 | 2e+02 | 1e+02 |     12.2 |     -1.77 |    -0.25 |    13.2 |  6.1e-05 | -2.6e-05 | -3.1e-06 |
    |   84 | 6e+01 | 7e+01 | 2e+02 | 6e+01 |     9.48 |       2.3 |   -0.232 |    8.57 |  4.2e-05 | -2.6e-06 | -2.9e-06 |
    |   85 | 4e+01 | 7e+01 | 2e+02 | 4e+01 |     8.52 |    -0.124 |    0.546 |    8.64 |  4.1e-05 | -1.3e-05 |  6.8e-06 |
    |   86 | 2e+02 | 9e+01 | 2e+02 | 1e+02 |     12.4 |     -1.29 |    -2.11 |    13.6 |  6.2e-05 | -2.4e-05 | -2.6e-05 |
    |   87 | 4e+01 | 4e+01 | 2e+02 | 8e+01 |       10 |   -0.0497 |    0.022 |      10 |  4.8e-05 | -1.5e-05 |  2.7e-07 |
    |   88 | 2e+01 | 2e+01 | 2e+02 | 8e+01 |     3.62 |     0.314 |     1.65 |     4.5 |  1.7e-05 | -3.7e-06 |  2.1e-05 |
    |   89 | 1e+02 | 2e+02 | 2e+02 | 2e+02 |     10.2 |     0.434 |    0.415 |      10 |  4.8e-05 | -1.3e-05 |  5.2e-06 |
    |   90 | 2e+02 | 8e+01 | 2e+02 | 2e+02 |     8.53 |     0.409 |     3.91 |    10.7 |    4e-05 |   -1e-05 |  4.9e-05 |
    |   91 | 2e+01 | 8e+01 | 2e+02 | 2e+01 |     20.7 |     0.669 |     1.05 |    20.5 |  9.9e-05 | -2.7e-05 |  1.3e-05 |
    |   92 | 2e+02 | 1e+02 | 1e+02 | 2e+02 |     10.5 |    -0.713 |    -0.42 |    10.9 |  5.2e-05 | -1.9e-05 | -5.3e-06 |
    |   93 | 8e+01 | 1e+02 | 2e+02 | 1e+02 |     19.9 |      2.33 |    0.929 |    18.9 |  9.2e-05 | -1.7e-05 |  1.2e-05 |
    |   94 | 3e+01 | 7e+01 | 2e+02 | 3e+01 |     6.48 |    -0.185 |    -1.21 |     6.9 |  3.1e-05 |   -1e-05 | -1.5e-05 |
    |   95 | 3e+01 | 2e+02 | 2e+02 | 3e+01 |       10 |   -0.0372 |  -0.0207 |      10 |  4.8e-05 | -1.5e-05 | -2.6e-07 |
    |   96 | 6e+01 | 2e+02 | 2e+02 | 6e+01 |     9.55 |      2.25 |   -0.667 |    8.73 |  4.3e-05 |   -3e-06 | -8.3e-06 |
    |   97 | 1e+02 | 2e+02 | 8e+01 | 2e+02 |       10 |    -0.198 |    0.041 |    10.1 |  4.9e-05 | -1.5e-05 |  5.1e-07 |
    |   98 | 1e+02 | 1e+02 | 2e+02 | 1e+02 |     11.8 |     -1.48 |     1.97 |    13.1 |  5.9e-05 | -2.4e-05 |  2.5e-05 |
    |   99 | 1e+01 | 1e+02 | 2e+02 | 1e+01 |     9.83 |    0.0236 |    0.216 |    9.83 |  4.7e-05 | -1.4e-05 |  2.7e-06 |
    |  100 | 4e+01 | 1e+02 | 2e+02 | 4e+01 |     9.97 |   -0.0189 |   0.0218 |    9.98 |  4.8e-05 | -1.4e-05 |  2.7e-07 |
    |  101 | 3e+01 | 3e+01 | 2e+02 | 8e+01 |     9.97 |   -0.0214 |   -0.022 |    9.98 |  4.8e-05 | -1.4e-05 | -2.7e-07 |
    |  102 | 6e+01 | 6e+01 | 2e+02 | 8e+01 |     9.82 |    0.0444 |   -0.219 |    9.81 |  4.7e-05 | -1.4e-05 | -2.7e-06 |
    |  103 | 7e+01 | 2e+02 | 2e+02 | 1e+02 |     9.91 |     -0.64 |     -0.8 |    10.3 |  4.9e-05 | -1.7e-05 |   -1e-05 |
    |  104 | 4e+01 | 2e+02 | 2e+02 | 9e+01 |     4.78 |     0.602 |     2.56 |    6.32 |  2.2e-05 |   -4e-06 |  3.2e-05 |
    |  105 | 1e+02 | 1e+02 | 2e+02 | 1e+02 |     10.4 |    -0.953 |    0.868 |      11 |  5.1e-05 |   -2e-05 |  1.1e-05 |
    |  106 | 2e+02 | 1e+02 | 2e+02 | 7e+01 |     9.78 |    -0.274 |   -0.431 |    9.94 |  4.7e-05 | -1.5e-05 | -5.4e-06 |
    |  107 | 2e+02 | 2e+02 | 2e+02 | 1e+02 |     9.96 |   -0.0801 |   0.0733 |      10 |  4.8e-05 | -1.5e-05 |  9.2e-07 |
    |  108 | 1e+02 | 8e+01 | 2e+02 | 2e+02 |     9.96 |   -0.0757 |  -0.0719 |      10 |  4.8e-05 | -1.5e-05 |   -9e-07 |
    |  109 | 9e+01 | 9e+01 | 2e+02 | 9e+01 |     14.1 |     -1.12 |   -0.916 |    14.8 |  6.9e-05 | -2.6e-05 | -1.1e-05 |
    |  110 | 1e+02 | 2e+02 | 2e+02 | 1e+02 |     10.2 |     0.341 |   -0.419 |      10 |  4.8e-05 | -1.3e-05 | -5.2e-06 |
    |  111 | 3e+01 | 6e+01 | 2e+02 | 2e+02 |       10 |    -0.109 |  -0.0307 |    10.1 |  4.8e-05 | -1.5e-05 | -3.8e-07 |
    |  112 | 2e+02 | 1e+02 | 2e+02 | 1e+02 |     7.13 |     0.947 |    -3.52 |    9.06 |  3.3e-05 | -5.7e-06 | -4.4e-05 |
    |  113 | 1e+02 | 1e+02 | 2e+02 | 1e+02 |     10.2 |     0.423 |   -0.197 |      10 |  4.8e-05 | -1.3e-05 | -2.5e-06 |
    |  114 | 1e+02 | 1e+02 | 2e+02 | 1e+02 |     10.1 |    -0.392 |   0.0931 |    10.3 |  4.9e-05 | -1.7e-05 |  1.2e-06 |
    |  115 | 2e+02 | 2e+02 |     3 | 2e+02 |     13.7 |      1.24 |     3.79 |    14.7 |  6.4e-05 | -1.4e-05 |  4.7e-05 |
    |  116 | 2e+01 |     2 | 2e+01 | 2e+02 |    0.118 |     0.445 |  -0.0074 |   0.399 | -7.6e-08 |    2e-06 | -9.2e-08 |
    |  117 | 4e+01 | 2e+02 | 4e+01 |     7 |       10 | -2.33e-05 | -0.00646 |      10 |  4.8e-05 | -1.4e-05 | -8.1e-08 |
    |  118 | 1e+01 | 2e+02 | 6e+01 |     1 |     11.1 |      1.96 |     1.52 |    10.6 |    5e-05 | -6.5e-06 |  1.9e-05 |
    |  119 | 4e+01 |     8 | 5e+01 | 2e+02 |   -0.267 |     0.308 |   -0.184 |   0.591 | -1.7e-06 |  1.9e-06 | -2.3e-06 |
    |  120 | 6e+01 | 1e+01 | 6e+01 | 2e+02 |     11.1 |       1.9 |     -1.5 |    10.6 |    5e-05 | -6.8e-06 | -1.9e-05 |
    |  121 | 3e+01 |     6 | 3e+01 | 2e+02 |       10 | -2.55e-05 |  0.00644 |      10 |  4.8e-05 | -1.4e-05 |    8e-08 |
    |  122 | 9e+01 |     4 | 2e+02 | 9e+01 |     14.4 |       1.3 |    -3.07 |    14.8 |  6.7e-05 | -1.4e-05 | -3.8e-05 |
    |  123 | 1e+02 | 1e+02 | 2e+02 | 1e+02 |     10.1 |    -0.278 |   -0.165 |    10.2 |  4.9e-05 | -1.6e-05 | -2.1e-06 |
    |  124 | 7e+01 | 1e+02 | 2e+02 | 1e+02 |     8.53 |    -0.507 |    -2.76 |      10 |  4.2e-05 | -1.5e-05 | -3.4e-05 |
    |  125 | 8e+01 | 2e+02 | 2e+02 |     9 |     14.4 |       1.3 |     3.38 |      15 |  6.8e-05 | -1.5e-05 |  4.2e-05 |
    |  126 | 1e+02 | 7e+01 | 1e+02 | 2e+02 |     9.22 |    -0.837 |    -1.91 |    10.2 |  4.6e-05 | -1.7e-05 | -2.4e-05 |
    |  127 | 7e+01 | 2e+02 | 2e+02 | 1e+02 |     9.98 |     0.117 |    0.382 |    9.94 |  4.8e-05 | -1.4e-05 |  4.8e-06 |
    |  128 | 1e+02 | 2e+02 | 2e+02 | 7e+01 |     9.88 |      1.32 |   -0.231 |    9.29 |  4.6e-05 | -7.9e-06 | -2.9e-06 |
    |  129 | 1e+02 | 9e+01 | 2e+02 | 1e+02 |     13.4 |     -1.93 |    0.364 |    14.4 |  6.7e-05 | -2.9e-05 |  4.6e-06 |
    |  130 | 1e+02 | 2e+02 | 1e+02 | 1e+02 |     10.4 |    -0.405 |    0.403 |    10.6 |    5e-05 | -1.7e-05 |    5e-06 |
    |  131 | 7e+01 | 4e+01 | 4e+01 | 2e+02 |     6.91 |    -0.172 |     1.04 |    7.23 |  3.3e-05 | -1.1e-05 |  1.3e-05 |
    |  132 | 1e+02 | 1e+02 | 1e+02 | 2e+02 |     10.2 |    -0.579 |    0.461 |    10.5 |    5e-05 | -1.7e-05 |  5.8e-06 |
    |  133 | 2e+01 | 8e+01 | 2e+02 | 1e+02 |     7.73 |    -0.401 |     1.93 |    8.61 |  3.8e-05 | -1.3e-05 |  2.4e-05 |
    |  134 | 2e+02 | 1e+02 | 2e+02 | 2e+02 |     10.2 |     0.921 |    0.824 |    9.91 |  4.8e-05 |   -1e-05 |    1e-05 |
    |  135 | 2e+02 | 2e+02 | 2e+02 | 8e+01 |     10.2 |     0.842 |   -0.731 |    9.86 |  4.8e-05 | -1.1e-05 | -9.1e-06 |
    |  136 | 8e+01 | 2e+02 | 6e+01 | 6e+01 |     9.49 |   -0.0167 |  -0.0761 |     9.5 |  4.6e-05 | -1.4e-05 | -9.5e-07 |
    |  137 | 2e+02 | 8e+01 | 2e+02 | 2e+02 |     9.85 |      1.23 |    0.466 |    9.33 |  4.6e-05 | -8.3e-06 |  5.8e-06 |
    |  138 | 1e+02 | 2e+02 | 1e+02 | 1e+02 |     19.9 |      2.03 |   -0.629 |      19 |  9.3e-05 | -1.9e-05 | -7.9e-06 |
    |  139 | 7e+01 | 4e+01 | 4e+01 | 2e+02 |     9.41 |   -0.0681 |    0.253 |    9.45 |  4.5e-05 | -1.4e-05 |  3.2e-06 |
    |  140 | 1e+02 | 1e+02 | 8e+01 | 2e+02 |     18.7 |      2.67 |    -1.08 |    17.7 |  8.6e-05 | -1.4e-05 | -1.3e-05 |
    |  141 | 2e+02 | 1e+02 | 7e+01 | 2e+02 |     10.1 |    -0.636 |   -0.704 |    10.5 |    5e-05 | -1.8e-05 | -8.8e-06 |
    |  142 | 2e+02 |     3 | 2e+01 | 2e+02 |     23.2 |      4.52 |      4.2 |    22.5 |  0.00011 | -1.2e-05 |  5.3e-05 |
    |  143 | 1e+02 | 2e+02 | 8e+01 | 2e+02 |     17.2 |      3.45 |   -0.551 |    15.8 |  7.8e-05 | -8.3e-06 | -6.9e-06 |
    |  144 | 9e+01 | 1e+02 | 2e+02 | 1e+02 |     17.8 |      3.24 |   -0.144 |    16.5 |  8.1e-05 |   -1e-05 | -1.8e-06 |
    |  145 | 1e+02 | 1e+02 | 1e+02 | 2e+02 |     10.5 |     -1.27 |     2.15 |    11.8 |  5.2e-05 | -2.1e-05 |  2.7e-05 |
    |  146 | 1e+02 | 2e+02 | 1e+02 | 1e+02 |     11.1 |     -1.27 |   -0.449 |    11.8 |  5.5e-05 | -2.2e-05 | -5.6e-06 |
    |  147 | 1e+02 | 1e+02 | 2e+02 | 1e+02 |     10.1 |    -0.498 |   -0.321 |    10.4 |  4.9e-05 | -1.7e-05 |   -4e-06 |
    |  148 | 1e+02 | 1e+02 | 1e+02 | 2e+02 |     10.9 |     -1.32 |     1.43 |    11.9 |  5.4e-05 | -2.2e-05 |  1.8e-05 |
    |  149 | 1e+02 | 1e+02 | 2e+02 | 1e+02 |     10.3 |    -0.209 |   -0.374 |    10.4 |    5e-05 | -1.6e-05 | -4.7e-06 |
    |  150 | 1e+02 | 2e+02 | 2e+02 | 1e+02 |     13.3 |     -1.08 |      2.1 |    14.4 |  6.6e-05 | -2.4e-05 |  2.6e-05 |
    |  151 |     4 | 9e+01 | 2e+02 | 8e+01 |     16.7 |      3.85 |    -2.51 |    15.8 |  7.5e-05 | -5.6e-06 | -3.1e-05 |
    |  152 | 1e+02 | 1e+02 | 2e+02 | 8e+01 |     19.9 |      1.93 |  -0.0429 |      19 |  9.3e-05 | -1.9e-05 | -5.4e-07 |
    |  153 | 2e+02 | 2e+02 | 2e+02 | 7e+01 |     9.18 |    -0.852 |    -2.19 |    10.4 |  4.5e-05 | -1.7e-05 | -2.7e-05 |
    |  154 | 6e+01 | 2e+02 | 2e+02 | 8e+01 |      9.7 |      1.75 |    0.775 |    9.06 |  4.4e-05 | -5.6e-06 |  9.7e-06 |
    |  155 | 2e+02 | 9e+01 | 9e+01 | 2e+02 |     15.3 |      0.55 |    -1.13 |    15.2 |  7.3e-05 | -1.9e-05 | -1.4e-05 |
    |  156 | 2e+01 | 2e+02 | 2e+01 |     5 |   -0.321 |     0.305 |    0.203 |   0.646 |   -2e-06 |  1.9e-06 |  2.5e-06 |
    |  157 | 1e+02 | 2e+02 | 8e+01 | 2e+02 |     11.1 |     -1.03 |     2.66 |    12.5 |  5.5e-05 | -2.1e-05 |  3.3e-05 |
    |  158 | 1e+02 | 9e+01 | 2e+02 | 2e+02 |     9.75 |    -0.189 |    -3.58 |    11.6 |  4.7e-05 | -1.5e-05 | -4.5e-05 |
    |  159 | 9e+01 | 1e+02 | 2e+02 | 1e+02 |     12.6 |     -1.35 |    -2.01 |    13.7 |  6.2e-05 | -2.5e-05 | -2.5e-05 |
    |  160 | 1e+02 | 1e+02 | 2e+02 | 8e+01 |     15.4 |     0.291 |     1.18 |    15.4 |  7.4e-05 | -2.1e-05 |  1.5e-05 |
    |  161 |     3 | 2e+02 | 2e+02 | 2e+01 |     6.11 |      3.99 |     4.97 |    10.1 |  2.4e-05 |    1e-05 |  6.2e-05 |
    |  162 | 4e+01 | 4e+01 | 2e+02 | 2e+02 |     9.99 |    -0.014 |   0.0112 |      10 |  4.8e-05 | -1.4e-05 |  1.4e-07 |
    |  163 | 6e+01 | 6e+01 | 2e+02 | 2e+02 |     9.87 |      2.27 |      1.2 |    9.19 |  4.4e-05 | -3.3e-06 |  1.5e-05 |
    |  164 |     9 | 2e+02 | 2e+02 | 5e+01 |     6.06 |         4 |     4.93 |    10.1 |  2.3e-05 |    1e-05 |  6.2e-05 |
    |  165 | 3e+01 | 2e+02 | 2e+02 | 3e+01 |     9.99 |   -0.0127 |  -0.0102 |      10 |  4.8e-05 | -1.4e-05 | -1.3e-07 |
    |  166 | 6e+01 | 2e+02 | 2e+02 | 6e+01 |     9.82 |      2.12 |    -1.14 |    9.16 |  4.4e-05 |   -4e-06 | -1.4e-05 |
    |  167 | 2e+02 | 1e+02 | 2e+02 | 2e+02 |       10 |    -0.319 |     0.21 |    10.2 |  4.9e-05 | -1.6e-05 |  2.6e-06 |
    |  168 | 1e+01 | 2e+02 | 1e+02 | 5e+01 |    0.516 |     0.438 |   -0.885 |    1.61 |  1.8e-06 |  1.4e-06 | -1.1e-05 |
    |  169 | 2e+02 | 2e+02 | 2e+02 | 2e+02 |     9.94 |      1.19 |   -0.567 |    9.46 |  4.6e-05 | -8.6e-06 | -7.1e-06 |
    |  170 | 2e+02 | 1e+02 | 2e+02 | 2e+02 |     9.28 |    -0.704 |    -2.83 |    10.8 |  4.6e-05 | -1.7e-05 | -3.5e-05 |
    |  171 | 2e+01 | 2e+02 | 2e+02 | 2e+02 |     4.21 |     0.664 |    -2.34 |    5.64 |  1.9e-05 | -2.9e-06 | -2.9e-05 |
    |  172 |     4 | 2e+01 | 2e+02 | 2e+02 |     5.86 |      4.21 |    -4.92 |      10 |  2.2e-05 |  1.2e-05 | -6.2e-05 |
    +------+-------+-------+-------+-------+----------+-----------+----------+---------+----------+----------+----------+
